 vasp.5.4.4.18Apr17-6-g9f103f2a35 (build May 21 2018 20:56:50) complex
 executed on             LinuxGNU date 2020.02.13  21:05:23

 INCAR:
 POTCAR:    PAW_PBE C 08Apr2002
 POTCAR:    PAW_PBE C 08Apr2002
   VRHFIN =C: s2p2

   TITEL  = PAW_PBE C 08Apr2002
   POMASS =   12.011; ZVAL   =    4.000    mass and valenz
   ENMAX  =  400.000; ENMIN  =  300.000 eV

 Optimization of the real space projectors (new method)

 maximal supplied QI-value         = 25.13
 optimisation between [QCUT,QGAM] = [ 10.05, 20.36] = [ 28.30,116.06] Ry
 Optimized for a Real-space Cutoff    1.30 Angstroem

   l    n(q)    QCUT    max X(q) W(low)/X(q) W(high)/X(q)  e(spline)
   0      8    10.053   115.676    0.49E-03    0.72E-03    0.18E-06
   0      8    10.053    87.132    0.49E-03    0.71E-03    0.18E-06
   1      7    10.053     4.429    0.32E-03    0.31E-03    0.18E-06
   1      7    10.053     2.733    0.23E-03    0.19E-03    0.20E-06
  PAW_PBE C 08Apr2002                   :

 POSCAR: POSCAR file written by OVITO
  positions in cartesian coordinates
  velocities in cartesian coordinates
 exchange correlation table for  LEXCH =        8
   RHO(1)=    0.500       N(1)  =     2000
   RHO(2)=  100.500       N(2)  =     4000

 ion  position               nearest neighbor table
   1  0.033  0.962  0.408-   7 1.42 223 1.42  33 1.42
   2  0.025  0.888  0.408- 223 1.42 224 1.42   9 1.42
   3  0.016  0.814  0.408-  11 1.42 225 1.42 224 1.42
   4  0.008  0.740  0.408- 225 1.42 226 1.42  13 1.42
   5  0.000  0.667  0.408- 226 1.42  15 1.42 227 1.42
   6  0.148  0.995  0.408-  34 1.42   7 1.42  60 1.42
   7  0.107  0.959  0.408-   1 1.42   8 1.42   6 1.42
   8  0.139  0.921  0.408-   9 1.42   7 1.42  36 1.42
   9  0.098  0.885  0.408-  10 1.42   8 1.42   2 1.42
  10  0.131  0.847  0.408-   9 1.42  38 1.42  11 1.42
  11  0.090  0.811  0.408-  12 1.42   3 1.42  10 1.42
  12  0.123  0.773  0.408-  11 1.42  13 1.42  40 1.42
  13  0.082  0.738  0.408-  12 1.42  14 1.42   4 1.42
  14  0.115  0.699  0.408-  42 1.42  13 1.42  15 1.42
  15  0.074  0.664  0.408-   5 1.42  16 1.42  14 1.42
  16  0.107  0.626  0.408-  17 1.42  15 1.42  44 1.42
  17  0.066  0.590  0.408-  16 1.42 228 1.42  18 1.42
  18  0.098  0.552  0.408-  46 1.42  17 1.42  19 1.42
  19  0.057  0.516  0.408- 230 1.42  20 1.42  18 1.42
  20  0.090  0.478  0.408-  21 1.42  19 1.42  48 1.42
  21  0.049  0.443  0.408-  20 1.42 232 1.42  22 1.42
  22  0.082  0.404  0.408-  50 1.42  21 1.42  23 1.42
  23  0.041  0.369  0.408- 234 1.42  24 1.42  22 1.42
  24  0.074  0.331  0.408-  25 1.42  23 1.42  52 1.42
  25  0.033  0.295  0.408-  24 1.42 236 1.42  26 1.42
  26  0.066  0.257  0.408-  54 1.42  25 1.42  27 1.42
  27  0.025  0.221  0.408- 238 1.42  28 1.42  26 1.42
  28  0.057  0.183  0.408-  29 1.42  27 1.42  56 1.42
  29  0.016  0.148  0.408-  28 1.42 240 1.42  30 1.42
  30  0.049  0.109  0.408-  58 1.42  29 1.42  31 1.42
  31  0.008  0.074  0.408- 242 1.42  32 1.42  30 1.42
  32  0.041  0.036  0.408-  33 1.42  31 1.42  60 1.42
  33  0.000  0.000  0.408-  32 1.42 244 1.42   1 1.42
  34  0.221  0.992  0.408-  35 1.42   6 1.42  87 1.42
  35  0.254  0.954  0.408-  34 1.42  62 1.42  36 1.42
  36  0.213  0.918  0.408-  35 1.42  37 1.42   8 1.42
  37  0.246  0.880  0.408-  64 1.42  36 1.42  38 1.42
  38  0.205  0.844  0.408-  10 1.42  39 1.42  37 1.42
  39  0.238  0.806  0.408-  66 1.42  40 1.42  38 1.42
  40  0.197  0.771  0.408-  39 1.42  41 1.42  12 1.42
  41  0.230  0.732  0.408-  68 1.42  40 1.42  42 1.42
  42  0.189  0.697  0.408-  14 1.42  43 1.42  41 1.42
  43  0.221  0.658  0.408-  70 1.42  44 1.42  42 1.42
  44  0.180  0.623  0.408-  43 1.42  45 1.42  16 1.42
  45  0.213  0.585  0.408-  72 1.42  44 1.42  46 1.42
  46  0.172  0.549  0.408-  18 1.42  47 1.42  45 1.42
  47  0.205  0.511  0.408-  48 1.42  46 1.42  74 1.42
  48  0.164  0.475  0.408-  47 1.42  49 1.42  20 1.42
  49  0.197  0.437  0.408-  76 1.42  48 1.42  50 1.42
  50  0.156  0.402  0.408-  22 1.42  51 1.42  49 1.42
  51  0.189  0.363  0.408-  52 1.42  50 1.42  78 1.42
  52  0.148  0.328  0.408-  51 1.42  53 1.42  24 1.42
  53  0.180  0.290  0.408-  80 1.42  52 1.42  54 1.42
  54  0.139  0.254  0.408-  26 1.42  55 1.42  53 1.42
  55  0.172  0.216  0.408-  56 1.42  54 1.42  82 1.42
  56  0.131  0.180  0.408-  55 1.42  57 1.42  28 1.42
  57  0.164  0.142  0.408-  84 1.42  56 1.42  58 1.42
  58  0.123  0.107  0.408-  30 1.42  59 1.42  57 1.42
  59  0.156  0.068  0.408-  60 1.42  58 1.42  86 1.42
  60  0.115  0.033  0.408-  59 1.42   6 1.42  32 1.42
[...]
 474  0.918  0.738  0.592- 473 1.42 447 1.42 475 1.42
 475  0.959  0.702  0.592- 258 1.42 476 1.42 474 1.42
 476  0.926  0.664  0.592- 477 1.42 475 1.42 449 1.42
 477  0.967  0.628  0.592- 476 1.42 260 1.42 478 1.42
 478  0.934  0.590  0.592- 451 1.42 477 1.42 479 1.42
 479  0.975  0.555  0.592- 262 1.42 480 1.42 478 1.42
 480  0.943  0.516  0.592- 481 1.42 479 1.42 453 1.42
 481  0.984  0.481  0.592- 480 1.42 264 1.42 482 1.42
 482  0.951  0.443  0.592- 455 1.42 481 1.42 483 1.42
 483  0.992  0.407  0.592- 266 1.42 484 1.42 482 1.42
 484  0.959  0.369  0.592- 245 1.42 483 1.42 457 1.42
 485  0.967  0.295  0.592- 459 1.42 246 1.42 245 1.42
 486  0.975  0.221  0.592- 246 1.42 247 1.42 461 1.42
 487  0.984  0.148  0.592- 463 1.42 248 1.42 247 1.42
 488  0.992  0.074  0.592- 248 1.42 249 1.42 465 1.42

  LATTYP: Found a simple orthorhombic cell.
 ALAT       =    18.3999996000
 B/A-ratio  =     1.0441964847
 C/A-ratio  =     1.8086012948

  Lattice vectors:

 A1 = (   0.0000000000,   0.0000000000,  18.3999996000)
 A2 = ( -19.2132149000,   0.0000000000,   0.0000000000)
 A3 = (   0.0000000000, -33.2782631000,   0.0000000000)

Analysis of symmetry for initial positions (statically):
 Subroutine PRICEL returns:
 Original cell was already a primitive cell.

 Routine SETGRP: Setting up the symmetry group for a
 simple orthorhombic supercell.

 Subroutine GETGRP returns: Found  1 space group operations
 (whereof  1 operations were pure point group operations)
 out of a pool of  8 trial point group operations.

The static configuration has the point symmetry C_1 .

Analysis of symmetry for dynamics (positions and initial velocities):
 Subroutine PRICEL returns:
 Original cell was already a primitive cell.

 Routine SETGRP: Setting up the symmetry group for a
 simple orthorhombic supercell.

 Subroutine GETGRP returns: Found  1 space group operations
 (whereof  1 operations were pure point group operations)
 out of a pool of  8 trial point group operations.

The dynamic configuration has the point symmetry C_1 .

 Subroutine INISYM returns: Found  1 space group operations
 (whereof  1 operations are pure point group operations),
 and found     1 'primitive' translations

 KPOINTS: K-Points

Automatic generation of k-mesh.
Space group operators:
 irot       det(A)        alpha          n_x          n_y          n_z        tau_x        tau_y        tau_z
    1     1.000000     0.000000     1.000000     0.000000     0.000000     0.000000     0.000000     0.000000

 Subroutine IBZKPT returns following result:

 Found      1 irreducible k-points:

 Following reciprocal coordinates:
            Coordinates               Weight
  0.000000  0.000000  0.000000      1.000000

 Following cartesian coordinates:
            Coordinates               Weight
  0.000000  0.000000  0.000000      1.000000

 SYSTEM =  unknown system
 POSCAR =  POSCAR file written by OVITO

 Startparameter for this run:
   NWRITE =      2    write-flag & timer
   PREC   = normal    normal or accurate (medium, high low for compatibility)
   ISTART =      0    job   : 0-new  1-cont  2-samecut
   ICHARG =      2    charge: 1-file 2-atom 10-const
   ISPIN  =      1    spin polarized calculation?
   LNONCOLLINEAR =      F non collinear calculations
   LSORBIT =      F    spin-orbit coupling
   INIWAV =      1    electr: 0-lowe 1-rand  2-diag
   LASPH  =      F    aspherical Exc in radial PAW
   METAGGA=      F    non-selfconsistent MetaGGA calc.

 Electronic Relaxation 1
   ENCUT  =  400.0 eV  29.40 Ry    5.42 a.u.  31.33 54.27 30.01*2*pi/ulx,y,z
   ENINI  =  400.0     initial cutoff
   ENAUG  =  644.9 eV  augmentation charge cutoff
   NELM   =     60;   NELMIN=  2; NELMDL= -5     # of ELM steps
   EDIFF  = 0.1E-06   stopping-criterion for ELM
   LREAL  =      T    real-space projection
   NLSPLINE    = F    spline interpolate recip. space projectors
   LCOMPAT=      F    compatible to vasp.4.4
   GGA_COMPAT  = T    GGA compatible to vasp.4.4-vasp.4.6
   LMAXPAW     = -100 max onsite density
   LMAXMIX     =    2 max onsite mixed and CHGCAR
   VOSKOWN=      0    Vosko Wilk Nusair interpolation
   ROPT   =   -0.00050
 Ionic relaxation
   EDIFFG = -.5E-01   stopping-criterion for IOM
   NSW    =     50    number of steps for IOM
   NBLOCK =      1;   KBLOCK =     50    inner block; outer block
   IBRION =      2    ionic relax: 0-MD 1-quasi-New 2-CG
   NFREE  =      1    steps in history (QN), initial steepest desc. (CG)
   ISIF   =      4    stress and relaxation
   IWAVPR =     11    prediction:  0-non 1-charg 2-wave 3-comb
   ISYM   =      2    0-nonsym 1-usesym 2-fastsym
   LCORR  =      T    Harris-Foulkes like correction to forces

   POTIM  = 0.5000    time-step for ionic-motion
   TEIN   =    0.0    initial temperature
   TEBEG  =    0.0;   TEEND  =   0.0 temperature during run
   SMASS  =  -3.00    Nose mass-parameter (am)
   estimated Nose-frequenzy (Omega)   =  0.10E-29 period in steps =****** mass=  -0.844E-26a.u.
   SCALEE = 1.0000    scale energy and forces
   NPACO  =    256;   APACO  = 16.0  distance and # of slots for P.C.
   PSTRESS=    0.0 pullay stress

  Mass of Ions in am
   POMASS =  12.01
  Ionic Valenz
   ZVAL   =   4.00
  Atomic Wigner-Seitz radii
  virtual crystal weights
   VCA    =   1.00
   NELECT =    1952.0000    total number of electrons
   NUPDOWN=      -1.0000    fix difference up-down

 DOS related values:
   EMIN   =  10.00;   EMAX   =-10.00  energy-range for DOS
   EFERMI =   0.00
   ISMEAR =     0;   SIGMA  =   0.05  broadening in eV -4-tet -1-fermi 0-gaus

 Electronic relaxation 2 (details)
   IALGO  =     68    algorithm
   LDIAG  =      T    sub-space diagonalisation (order eigenvalues)
   LSUBROT=      F    optimize rotation matrix (better conditioning)
   TURBO    =      0    0=normal 1=particle mesh
   IRESTART =      0    0=no restart 2=restart with 2 vectors
   NREBOOT  =      0    no. of reboots
   NMIN     =      0    reboot dimension
   EREF     =   0.00    reference energy to select bands
   IMIX   =      4    mixing-type and parameters
     AMIX     =   0.40;   BMIX     =  1.00
     AMIX_MAG =   1.60;   BMIX_MAG =  1.00
     AMIN     =   0.10
     WC   =   100.;   INIMIX=   1;  MIXPRE=   1;  MAXMIX= -45

 Intra band minimization:
   WEIMIN = 0.0010     energy-eigenvalue tresh-hold
   EBREAK =  0.20E-10  absolut break condition
   DEPER  =   0.30     relativ break condition

   TIME   =   0.40     timestep for ELM

  volume/ion in A,a.u.               =      24.11       162.69
  Fermi-wavevector in a.u.,A,eV,Ry     =   0.899584  1.699968 11.010544  0.809252
  Thomas-Fermi vector in A             =   2.022436

 Write flags
[...]
   0.122E+00 -.358E+00 0.347E+03   -.105E+00 0.351E+00 -.347E+03   0.537E-02 0.657E-02 -.255E-01   -.171E-06 0.169E-06 -.378E-05
   -.232E+00 0.413E+00 0.347E+03   0.219E+00 -.411E+00 -.347E+03   0.339E-02 -.458E-02 -.384E-01   -.567E-06 0.790E-06 -.417E-05
   0.277E+00 -.266E+00 0.347E+03   -.276E+00 0.245E+00 -.347E+03   -.296E-02 0.107E-01 -.334E-01   0.315E-06 -.492E-07 -.450E-05
   -.292E+00 0.366E+00 0.347E+03   0.287E+00 -.358E+00 -.347E+03   0.101E-01 -.557E-03 -.443E-01   0.104E-06 -.108E-05 -.507E-05
   0.127E+00 -.338E+00 0.347E+03   -.108E+00 0.321E+00 -.347E+03   0.107E-01 0.109E-01 -.410E-01   -.960E-07 0.288E-07 -.542E-05
   -.243E+00 0.472E+00 0.347E+03   0.234E+00 -.466E+00 -.347E+03   0.395E-02 -.305E-02 -.489E-01   -.287E-06 0.121E-05 -.586E-05
   0.371E+00 -.347E+00 0.347E+03   -.379E+00 0.326E+00 -.347E+03   -.361E-02 0.775E-02 -.496E-01   -.805E-06 0.178E-06 -.605E-05
   -.256E+00 0.289E+00 0.347E+03   0.252E+00 -.268E+00 -.347E+03   0.103E-02 -.633E-02 -.513E-01   -.259E-06 -.847E-06 -.631E-05
   -.179E+00 0.395E+00 0.347E+03   0.164E+00 -.397E+00 -.347E+03   0.861E-02 -.175E-01 -.412E-01   -.231E-06 -.336E-06 -.527E-05
   0.298E+00 -.335E+00 0.347E+03   -.304E+00 0.313E+00 -.347E+03   0.185E-02 0.806E-02 -.385E-01   -.648E-06 0.367E-06 -.515E-05
   -.236E+00 0.177E+00 0.347E+03   0.228E+00 -.150E+00 -.347E+03   0.186E-01 -.692E-02 -.404E-01   -.187E-06 -.201E-06 -.522E-05
   0.195E+00 -.303E+00 0.347E+03   -.185E+00 0.275E+00 -.347E+03   -.447E-03 0.178E-02 -.355E-01   -.274E-06 -.514E-06 -.480E-05
   -.119E+00 0.270E+00 0.347E+03   0.940E-01 -.256E+00 -.347E+03   0.589E-02 -.124E-01 -.359E-01   -.284E-06 -.301E-06 -.477E-05
   0.243E+00 -.238E+00 0.347E+03   -.240E+00 0.211E+00 -.347E+03   -.454E-02 -.326E-02 -.318E-01   0.757E-07 0.223E-08 -.451E-05
   -.325E+00 0.217E+00 0.347E+03   0.323E+00 -.189E+00 -.347E+03   0.144E-01 -.780E-02 -.312E-01   -.232E-06 -.316E-06 -.431E-05
   0.149E+00 -.322E+00 0.347E+03   -.130E+00 0.309E+00 -.347E+03   -.174E-02 0.244E-02 -.327E-01   0.428E-08 -.343E-06 -.415E-05
   -.223E+00 0.334E+00 0.347E+03   0.211E+00 -.317E+00 -.347E+03   -.342E-04 -.787E-02 -.300E-01   0.835E-06 0.110E-06 -.422E-05
   0.162E+00 -.244E+00 0.347E+03   -.143E+00 0.226E+00 -.347E+03   -.887E-02 0.581E-02 -.338E-01   0.425E-06 0.684E-06 -.458E-05
   -.414E+00 0.288E+00 0.347E+03   0.430E+00 -.261E+00 -.347E+03   0.914E-02 -.490E-02 -.314E-01   0.667E-06 0.297E-06 -.460E-05
   0.114E+00 -.300E+00 0.347E+03   -.907E-01 0.288E+00 -.347E+03   -.164E-02 0.969E-02 -.380E-01   0.468E-06 0.769E-07 -.496E-05
   -.247E+00 0.299E+00 0.347E+03   0.244E+00 -.273E+00 -.347E+03   -.100E-01 -.464E-02 -.349E-01   -.547E-06 0.620E-06 -.487E-05
   0.220E+00 -.211E+00 0.347E+03   -.216E+00 0.194E+00 -.347E+03   -.136E-01 0.126E-01 -.388E-01   0.853E-07 0.833E-06 -.512E-05
   -.404E+00 0.272E+00 0.347E+03   0.420E+00 -.247E+00 -.347E+03   -.233E-02 -.720E-02 -.335E-01   -.692E-06 -.278E-06 -.483E-05
   0.117E+00 -.321E+00 0.347E+03   -.100E+00 0.314E+00 -.347E+03   0.496E-02 0.742E-02 -.336E-01   0.484E-06 -.242E-06 -.468E-05
   -.252E+00 0.279E+00 0.347E+03   0.246E+00 -.257E+00 -.347E+03   -.126E-01 -.413E-02 -.332E-01   -.107E-05 0.377E-06 -.422E-05
   0.272E+00 -.295E+00 0.347E+03   -.276E+00 0.286E+00 -.347E+03   -.520E-02 0.547E-02 -.310E-01   -.277E-07 0.159E-06 -.410E-05
   -.359E+00 0.279E+00 0.347E+03   0.363E+00 -.267E+00 -.347E+03   0.110E-02 -.760E-02 -.322E-01   -.608E-06 -.102E-05 -.378E-05
   0.140E+00 -.356E+00 0.347E+03   -.121E+00 0.350E+00 -.347E+03   0.138E-01 0.429E-02 -.286E-01   0.669E-06 -.601E-06 -.380E-05
   -.218E+00 0.339E+00 0.347E+03   0.202E+00 -.334E+00 -.347E+03   -.714E-02 0.250E-02 -.360E-01   -.626E-06 0.358E-06 -.383E-05
   0.266E+00 -.289E+00 0.347E+03   -.266E+00 0.274E+00 -.347E+03   -.378E-02 0.743E-02 -.293E-01   -.423E-06 0.660E-07 -.409E-05
   -.303E+00 0.398E+00 0.347E+03   0.301E+00 -.396E+00 -.347E+03   0.117E-01 -.143E-02 -.399E-01   -.380E-07 -.723E-06 -.440E-05
   0.178E+00 -.291E+00 0.347E+03   -.164E+00 0.270E+00 -.347E+03   0.147E-01 0.794E-02 -.354E-01   0.305E-06 0.483E-07 -.466E-05
   -.184E+00 0.398E+00 0.347E+03   0.167E+00 -.395E+00 -.347E+03   0.113E-03 -.106E-02 -.430E-01   -.993E-06 0.107E-05 -.517E-05
   0.354E+00 -.331E+00 0.347E+03   -.365E+00 0.308E+00 -.347E+03   -.207E-03 0.118E-01 -.436E-01   -.980E-07 0.961E-06 -.537E-05
   -.260E+00 0.317E+00 0.347E+03   0.257E+00 -.303E+00 -.347E+03   0.129E-01 -.685E-02 -.473E-01   -.239E-06 -.579E-06 -.581E-05
[...]
   0.160E+00 0.270E+00 -.347E+03   -.150E+00 -.252E+00 0.347E+03   0.634E-02 -.388E-02 0.244E-01   -.364E-06 0.136E-05 0.389E-05
   -.295E+00 -.193E+00 -.347E+03   0.291E+00 0.173E+00 0.347E+03   0.126E-01 0.498E-02 0.329E-01   -.158E-06 0.823E-06 0.418E-05
   0.220E+00 0.230E+00 -.347E+03   -.219E+00 -.205E+00 0.347E+03   0.226E-02 -.703E-02 0.259E-01   0.814E-06 -.152E-06 0.415E-05
   -.171E+00 -.251E+00 -.347E+03   0.154E+00 0.239E+00 0.347E+03   -.197E-03 0.388E-02 0.314E-01   -.558E-06 -.235E-06 0.428E-05
   0.184E+00 0.229E+00 -.347E+03   -.178E+00 -.206E+00 0.347E+03   0.706E-02 -.148E-01 0.293E-01   0.136E-05 0.472E-06 0.413E-05
   -.317E+00 -.149E+00 -.347E+03   0.323E+00 0.124E+00 0.347E+03   0.918E-02 0.639E-02 0.317E-01   -.261E-06 0.431E-06 0.435E-05
   0.311E+00 0.175E+00 -.347E+03   -.313E+00 -.151E+00 0.347E+03   -.624E-03 -.131E-01 0.317E-01   0.326E-06 -.125E-05 0.433E-05
   -.151E+00 -.288E+00 -.347E+03   0.141E+00 0.274E+00 0.347E+03   -.932E-02 0.971E-02 0.277E-01   -.487E-06 -.506E-06 0.419E-05
   0.234E+00 0.286E+00 -.347E+03   -.225E+00 -.269E+00 0.347E+03   0.401E-02 -.380E-02 0.314E-01   -.406E-07 0.898E-06 0.395E-05
   -.344E+00 -.243E+00 -.347E+03   0.355E+00 0.221E+00 0.347E+03   0.567E-02 0.556E-02 0.265E-01   0.919E-06 -.367E-06 0.384E-05
   -.135E+00 -.255E+00 -.347E+03   0.121E+00 0.235E+00 0.347E+03   -.345E-02 0.619E-02 0.261E-01   -.649E-07 0.245E-06 0.370E-05
   -.260E+00 -.337E+00 -.347E+03   0.260E+00 0.323E+00 0.347E+03   0.758E-02 0.670E-02 0.288E-01   0.433E-06 -.900E-06 0.418E-05
   -.125E+00 -.241E+00 -.347E+03   0.105E+00 0.216E+00 0.347E+03   -.308E-02 0.123E-01 0.378E-01   0.115E-06 0.953E-06 0.516E-05
   -.323E+00 -.378E+00 -.347E+03   0.327E+00 0.362E+00 0.347E+03   0.730E-02 0.972E-02 0.454E-01   0.383E-06 -.898E-06 0.579E-05
   0.325E-04 -.132E-03 0.325E-03   0.427E-11 0.882E-13 -.417E-10   0.110E-01 -.434E-02 -.210E-02   -.264E-07 0.158E-08 0.192E-05

 POSITION                                       TOTAL-FORCE (eV/Angst)
      0.63027     32.05732      7.47919         0.015882     -0.012278     -0.034792
      0.47273     29.59847      7.47955        -0.014970     -0.009608     -0.028077
      0.31458     27.13970      7.48018         0.017090     -0.016412     -0.018358
      0.15771     24.68103      7.48088        -0.009955     -0.016778     -0.007523
      0.00009     22.22163      7.48086         0.019078      0.006685     -0.004390
      2.83713     33.15010      7.47932         0.021190     -0.023255     -0.030708
      2.04899     31.96767      7.47918        -0.028834      0.002627     -0.033875
      2.67975     30.69113      7.47947        -0.015037     -0.021652     -0.030053
      1.89081     29.50890      7.47947        -0.001786      0.000356     -0.025810
      2.52146     28.23222      7.48000         0.016041      0.009205     -0.021116
      1.73358     27.05023      7.48009        -0.037199     -0.018445     -0.016141
      2.36450     25.77370      7.48044        -0.016692     -0.002301     -0.013157
      1.57582     24.59107      7.48065        -0.001213      0.022186     -0.007132
      2.20673     23.31516      7.48074         0.017230     -0.011841     -0.007334
      1.41875     22.13231      7.48083        -0.024159      0.012785     -0.005066
      2.04996     20.85649      7.48067        -0.016775     -0.019856     -0.008919
      1.26096     19.67346      7.48061         0.002374      0.022568     -0.008013
      1.89192     18.39738      7.48041         0.013217     -0.004963     -0.012502
      1.10325     17.21465      7.48049        -0.004289      0.009660     -0.009981
      1.73441     15.93835      7.48057        -0.022150     -0.011097     -0.010281
      0.94521     14.75542      7.48074         0.002592      0.018835     -0.007737
      1.57621     13.47900      7.48074         0.004100     -0.003692     -0.006686
      0.78787     12.29608      7.48088        -0.004272      0.010907     -0.004281
      1.41890     11.01962      7.48088        -0.017183     -0.007934     -0.004372
      0.63022      9.83693      7.48097         0.003723      0.010999     -0.005754
      1.26118      8.56044      7.48053         0.021973     -0.001583     -0.006986
      0.47336      7.37805      7.48050        -0.006591     -0.001892     -0.013935
      1.10402      6.10137      7.47995        -0.002500     -0.010631     -0.017332
      0.31560      4.91893      7.47987         0.007907      0.008360     -0.024429
      0.94614      3.64209      7.47955         0.030575     -0.007128     -0.026355
      0.15791      2.45996      7.47935        -0.003432      0.003545     -0.032373
      0.78873      1.18298      7.47905        -0.011262     -0.014170     -0.034683
     -0.00014      0.00066      7.47897        -0.002534      0.014966     -0.036684
      4.25552     33.06056      7.47979        -0.008160     -0.021141     -0.024118
      4.88661     31.78380      7.47986        -0.003831     -0.013924     -0.021546
      4.09759     30.60121      7.47973         0.009093      0.016969     -0.022979
      4.72851     29.32531      7.48012         0.008443     -0.024971     -0.017563
      3.94015     28.14277      7.48017        -0.018748     -0.001368     -0.017043
      4.57132     26.86691      7.48042        -0.002934     -0.028794     -0.012253
      3.78245     25.68400      7.48047         0.013912      0.017750     -0.011111
      4.41359     24.40808      7.48052         0.015147     -0.008343     -0.011110
      3.62531     23.22547      7.48052        -0.010148      0.007521     -0.010134
      4.25636     21.94934      7.48047         0.010040     -0.009054     -0.012138
      3.46751     20.76654      7.48046         0.024857      0.022337     -0.012435
      4.09851     19.49032      7.48006         0.023590      0.000884     -0.017970
      3.31021     18.30763      7.48010        -0.015034      0.022721     -0.016778
      3.94101     17.03133      7.48004        -0.007468     -0.003345     -0.020093
      3.15188     15.84876      7.48020         0.010733      0.018497     -0.014500
      3.78268     14.57220      7.48025         0.022738      0.000162     -0.015008
      2.99456     13.38950      7.48058        -0.021141      0.019783     -0.010396
      3.62529     12.11290      7.48052        -0.009181     -0.004528     -0.010927
      2.83685     10.93026      7.48063         0.004873      0.007276     -0.007644
      3.46737      9.65342      7.48066         0.031662     -0.003457     -0.007846
      2.67997      8.47069      7.48073        -0.020683      0.010677     -0.010952
      3.31048      7.19391      7.48033        -0.003904     -0.009168     -0.010386
      2.52211      6.01158      7.48022         0.012266      0.001601     -0.017945
      3.15274      4.73472      7.47986         0.028569     -0.014894     -0.018255
      2.36490      3.55219      7.47971        -0.015365      0.003308     -0.025333
      2.99554      2.27529      7.47956        -0.010477     -0.012686     -0.027264
      2.20650      1.09315      7.47927         0.009702      0.007219     -0.031468
[...]
     17.65394     24.58969     10.87264        -0.006239      0.016440      0.008821
     18.44195     23.40706     10.87260         0.016086      0.013728      0.004079
     17.81100     22.13106     10.87245         0.009000     -0.013990      0.005896
     18.59979     20.94825     10.87246         0.003484      0.018048      0.004405
     17.96870     19.67230     10.87270        -0.019548     -0.006726      0.007460
     18.75708     18.48948     10.87269         0.014389      0.008129      0.008368
     18.12619     17.21340     10.87287         0.012622     -0.016976      0.010461
     18.91528     16.03048     10.87272         0.000383      0.010874      0.009405
     18.28448     14.75412     10.87258        -0.021084     -0.003360      0.007124
     19.07271     13.57122     10.87250         0.015231      0.013424      0.005841
     18.44155     12.29504     10.87257         0.016396     -0.016283      0.005028
     18.59960      9.83565     10.87254        -0.017834     -0.013994      0.005166
     18.75642      7.37651     10.87304         0.007681     -0.007345      0.011264
     18.91439      4.91746     10.87369        -0.022815     -0.013012      0.022814
     19.07156      2.45833     10.87403         0.011675     -0.006447      0.031059
    total drift:                                0.011004     -0.004474     -0.001770

  FREE ENERGIE OF THE ION-ELECTRON SYSTEM (eV)
  free  energy   TOTEN  =     -4544.76530304 eV

  energy  without entropy=    -4544.76530304  energy(sigma->0) =    -4544.76530304

 d Force =-0.3580208E-03[-0.430E-03,-0.286E-03]  d Energy =-0.3434258E-03-0.146E-04
 d Force =-0.1201172E+02[-0.120E+02,-0.120E+02]  d Ewald  =-0.1874873E+03 0.175E+03

 reached required accuracy - stopping structural energy minimisation
 writing wavefunctions

 total charge

# of ion       s       p       d       tot
    1        0.867   1.794   0.000   2.661
    2        0.867   1.794   0.000   2.661
    3        0.867   1.794   0.000   2.661
    4        0.867   1.795   0.000   2.662
    5        0.867   1.794   0.000   2.661
    6        0.867   1.794   0.000   2.661
    7        0.867   1.794   0.000   2.661
    8        0.867   1.794   0.000   2.661
    9        0.867   1.794   0.000   2.661
   10        0.867   1.794   0.000   2.661
   11        0.867   1.794   0.000   2.661
   12        0.867   1.794   0.000   2.661
   13        0.867   1.793   0.000   2.661
   14        0.867   1.795   0.000   2.661
   15        0.867   1.793   0.000   2.660
   16        0.867   1.795   0.000   2.662
   17        0.867   1.793   0.000   2.660
   18        0.867   1.794   0.000   2.661
   19        0.867   1.794   0.000   2.661
   20        0.867   1.794   0.000   2.661
   21        0.867   1.794   0.000   2.661
   22        0.867   1.793   0.000   2.660
   23        0.867   1.794   0.000   2.661
   24        0.867   1.793   0.000   2.660
   25        0.867   1.794   0.000   2.661
   26        0.867   1.793   0.000   2.660
   27        0.867   1.794   0.000   2.661
   28        0.867   1.794   0.000   2.661
   29        0.867   1.794   0.000   2.661
   30        0.867   1.794   0.000   2.661
   31        0.867   1.794   0.000   2.661
   32        0.867   1.794   0.000   2.661
   33        0.867   1.794   0.000   2.661
   34        0.867   1.794   0.000   2.661
   35        0.867   1.793   0.000   2.660
   36        0.867   1.795   0.000   2.662
   37        0.867   1.794   0.000   2.661
   38        0.867   1.794   0.000   2.661
   39        0.867   1.794   0.000   2.661
   40        0.867   1.794   0.000   2.661
   41        0.867   1.794   0.000   2.661
   42        0.867   1.793   0.000   2.661
   43        0.867   1.794   0.000   2.661
   44        0.867   1.794   0.000   2.661
   45        0.867   1.794   0.000   2.661
   46        0.867   1.794   0.000   2.661
   47        0.867   1.794   0.000   2.661
   48        0.867   1.794   0.000   2.661
   49        0.867   1.794   0.000   2.661
   50        0.867   1.794   0.000   2.661
   51        0.867   1.794   0.000   2.661
   52        0.867   1.794   0.000   2.661
   53        0.867   1.793   0.000   2.660
   54        0.867   1.794   0.000   2.661
   55        0.867   1.794   0.000   2.661
   56        0.867   1.794   0.000   2.661
   57        0.867   1.794   0.000   2.661
   58        0.867   1.794   0.000   2.661
   59        0.867   1.794   0.000   2.661
   60        0.867   1.794   0.000   2.662
[...]
  474        0.867   1.794   0.000   2.661
  475        0.867   1.793   0.000   2.661
  476        0.867   1.795   0.000   2.662
  477        0.867   1.793   0.000   2.660
  478        0.867   1.794   0.000   2.661
  479        0.867   1.794   0.000   2.661
  480        0.867   1.794   0.000   2.661
  481        0.867   1.794   0.000   2.661
  482        0.867   1.793   0.000   2.660
  483        0.867   1.794   0.000   2.661
  484        0.867   1.793   0.000   2.661
  485        0.867   1.793   0.000   2.660
  486        0.867   1.794   0.000   2.661
  487        0.867   1.794   0.000   2.661
  488        0.867   1.794   0.000   2.661
tot        423.140 875.402   0.0001298.541