 vasp.5.4.4.18Apr17-6-g9f103f2a35 (build May 21 2018 20:56:50) complex
 executed on             LinuxGNU date 2020.02.14  04:02:39

 INCAR:
 POTCAR:    PAW_PBE C 08Apr2002
 POTCAR:    PAW_PBE C 08Apr2002
   VRHFIN =C: s2p2

   TITEL  = PAW_PBE C 08Apr2002
   POMASS =   12.011; ZVAL   =    4.000    mass and valenz
   ENMAX  =  400.000; ENMIN  =  300.000 eV

 Optimization of the real space projectors (new method)

 maximal supplied QI-value         = 25.13
 optimisation between [QCUT,QGAM] = [ 10.05, 20.36] = [ 28.30,116.06] Ry
 Optimized for a Real-space Cutoff    1.30 Angstroem

   l    n(q)    QCUT    max X(q) W(low)/X(q) W(high)/X(q)  e(spline)
   0      8    10.053   115.676    0.49E-03    0.72E-03    0.18E-06
   0      8    10.053    87.132    0.49E-03    0.71E-03    0.18E-06
   1      7    10.053     4.429    0.32E-03    0.31E-03    0.18E-06
   1      7    10.053     2.733    0.23E-03    0.19E-03    0.20E-06
  PAW_PBE C 08Apr2002                   :

 POSCAR: POSCAR file written by OVITO
  positions in cartesian coordinates
  velocities in cartesian coordinates
 exchange correlation table for  LEXCH =        8
   RHO(1)=    0.500       N(1)  =     2000
   RHO(2)=  100.500       N(2)  =     4000

 ion  position               nearest neighbor table
   1  0.041  0.950  0.408-   6 1.42 132 1.42  26 1.42
   2  0.027  0.856  0.408- 132 1.42 133 1.42   8 1.42
   3  0.013  0.761  0.408- 134 1.42 133 1.42  10 1.42
   4  0.000  0.667  0.408-  12 1.42 135 1.42 134 1.42
   5  0.189  0.991  0.408-  27 1.42   6 1.42  47 1.42
   6  0.135  0.946  0.408-   1 1.42   5 1.42   7 1.42
   7  0.176  0.896  0.408-  29 1.42   6 1.42   8 1.42
   8  0.122  0.851  0.408-   9 1.42   7 1.42   2 1.42
   9  0.162  0.802  0.408-  31 1.42   8 1.42  10 1.42
  10  0.108  0.757  0.408-  11 1.42   9 1.42   3 1.42
  11  0.149  0.707  0.408-  10 1.42  12 1.42  33 1.42
  12  0.095  0.662  0.408-   4 1.42  11 1.42  13 1.42
  13  0.135  0.613  0.408-  12 1.42  14 1.42  35 1.42
  14  0.081  0.568  0.408-  15 1.42 136 1.42  13 1.42
  15  0.122  0.518  0.408-  37 1.42  14 1.42  16 1.42
  16  0.068  0.473  0.408-  17 1.42 138 1.42  15 1.42
  17  0.108  0.423  0.408-  39 1.42  18 1.42  16 1.42
  18  0.054  0.378  0.408-  17 1.42 140 1.42  19 1.42
  19  0.095  0.329  0.408-  20 1.42  18 1.42  41 1.42
  20  0.041  0.284  0.408-  19 1.42  21 1.42 142 1.42
  21  0.081  0.234  0.408-  20 1.42  22 1.42  43 1.42
  22  0.027  0.189  0.408- 144 1.42  23 1.42  21 1.42
  23  0.068  0.140  0.408-  24 1.42  22 1.42  45 1.42
  24  0.013  0.095  0.408-  23 1.42 146 1.42  25 1.42
  25  0.054  0.045  0.408-  47 1.42  26 1.42  24 1.42
  26  0.000  0.000  0.408-  25 1.42 148 1.42   1 1.42
  27  0.284  0.986  0.408-   5 1.42  28 1.42  68 1.42
  28  0.324  0.937  0.408-  29 1.42  27 1.42  49 1.42
  29  0.270  0.892  0.408-   7 1.42  28 1.42  30 1.42
  30  0.311  0.842  0.408-  51 1.42  29 1.42  31 1.42
  31  0.257  0.797  0.408-   9 1.42  32 1.42  30 1.42
  32  0.297  0.748  0.408-  53 1.42  31 1.42  33 1.42
  33  0.243  0.703  0.408-  34 1.42  32 1.42  11 1.42
  34  0.284  0.653  0.408-  35 1.42  33 1.42  55 1.42
  35  0.230  0.608  0.408-  34 1.42  36 1.42  13 1.42
  36  0.270  0.559  0.408-  35 1.42  37 1.42  57 1.42
  37  0.216  0.514  0.408-  15 1.42  38 1.42  36 1.42
  38  0.257  0.464  0.408-  59 1.42  37 1.42  39 1.42
  39  0.203  0.419  0.408-  17 1.42  40 1.42  38 1.42
  40  0.243  0.369  0.408-  61 1.42  41 1.42  39 1.42
  41  0.189  0.324  0.408-  40 1.42  42 1.42  19 1.42
  42  0.230  0.275  0.408-  63 1.42  41 1.42  43 1.42
  43  0.176  0.230  0.408-  44 1.42  42 1.42  21 1.42
  44  0.216  0.180  0.408-  43 1.42  45 1.42  65 1.42
  45  0.162  0.135  0.408-  46 1.42  44 1.42  23 1.42
  46  0.203  0.086  0.408-  45 1.42  47 1.42  67 1.42
  47  0.149  0.041  0.408-  25 1.42  46 1.42   5 1.42
  48  0.473  0.977  0.408-  49 1.42  89 1.42  69 1.42
  49  0.419  0.932  0.408-  48 1.42  50 1.42  28 1.42
  50  0.459  0.883  0.408-  51 1.42  49 1.42  71 1.42
  51  0.405  0.838  0.408-  30 1.42  50 1.42  52 1.42
  52  0.446  0.788  0.408-  73 1.42  51 1.42  53 1.42
  53  0.392  0.743  0.408-  32 1.42  54 1.42  52 1.42
  54  0.432  0.694  0.408-  75 1.42  53 1.42  55 1.42
  55  0.378  0.649  0.408-  56 1.42  54 1.42  34 1.42
  56  0.419  0.599  0.408-  77 1.42  57 1.42  55 1.42
  57  0.365  0.554  0.408-  58 1.42  56 1.42  36 1.42
  58  0.405  0.505  0.408-  57 1.42  59 1.42  79 1.42
  59  0.351  0.459  0.408-  38 1.42  60 1.42  58 1.42
  60  0.392  0.410  0.408-  59 1.42  61 1.42  81 1.42
[...]
 282  0.919  0.901  0.592- 283 1.42 155 1.42 281 1.42
 283  0.878  0.851  0.592- 282 1.42 284 1.42 262 1.42
 284  0.932  0.806  0.592- 157 1.42 283 1.42 285 1.42
 285  0.892  0.757  0.592- 286 1.42 264 1.42 284 1.42
 286  0.946  0.712  0.592- 285 1.42 287 1.42 159 1.42
 287  0.905  0.662  0.592- 266 1.42 286 1.42 288 1.42
 288  0.959  0.617  0.592- 289 1.42 161 1.42 287 1.42
 289  0.919  0.568  0.592- 268 1.42 290 1.42 288 1.42
 290  0.973  0.523  0.592- 289 1.42 163 1.42 291 1.42
 291  0.932  0.473  0.592- 292 1.42 290 1.42 270 1.42
 292  0.986  0.428  0.592- 291 1.42 293 1.42 165 1.42
 293  0.946  0.378  0.592- 292 1.42 149 1.42 272 1.42
 294  0.959  0.284  0.592- 150 1.42 149 1.42 274 1.42
 295  0.973  0.189  0.592- 276 1.42 151 1.42 150 1.42
 296  0.986  0.095  0.592- 278 1.42 151 1.42 152 1.42

  LATTYP: Found a simple orthorhombic cell.
 ALAT       =    14.9635954000
 B/A-ratio  =     1.2296509701
 C/A-ratio  =     1.7320508011

  Lattice vectors:

 A1 = ( -14.9635954000,   0.0000000000,   0.0000000000)
 A2 = (   0.0000000000,   0.0000000000, -18.3999996000)
 A3 = (   0.0000000000, -25.9177074000,   0.0000000000)

Analysis of symmetry for initial positions (statically):
 Subroutine PRICEL returns:
 Original cell was already a primitive cell.

 Routine SETGRP: Setting up the symmetry group for a
 simple orthorhombic supercell.

 Subroutine GETGRP returns: Found  1 space group operations
 (whereof  1 operations were pure point group operations)
 out of a pool of  8 trial point group operations.

The static configuration has the point symmetry C_1 .

Analysis of symmetry for dynamics (positions and initial velocities):
 Subroutine PRICEL returns:
 Original cell was already a primitive cell.

 Routine SETGRP: Setting up the symmetry group for a
 simple orthorhombic supercell.

 Subroutine GETGRP returns: Found  1 space group operations
 (whereof  1 operations were pure point group operations)
 out of a pool of  8 trial point group operations.

The dynamic configuration has the point symmetry C_1 .

 Subroutine INISYM returns: Found  1 space group operations
 (whereof  1 operations are pure point group operations),
 and found     1 'primitive' translations

 KPOINTS: K-Points

Automatic generation of k-mesh.
Space group operators:
 irot       det(A)        alpha          n_x          n_y          n_z        tau_x        tau_y        tau_z
    1     1.000000     0.000000     1.000000     0.000000     0.000000     0.000000     0.000000     0.000000

 Subroutine IBZKPT returns following result:

 Found      1 irreducible k-points:

 Following reciprocal coordinates:
            Coordinates               Weight
  0.000000  0.000000  0.000000      1.000000

 Following cartesian coordinates:
            Coordinates               Weight
  0.000000  0.000000  0.000000      1.000000

 SYSTEM =  unknown system
 POSCAR =  POSCAR file written by OVITO

 Startparameter for this run:
   NWRITE =      2    write-flag & timer
   PREC   = normal    normal or accurate (medium, high low for compatibility)
   ISTART =      0    job   : 0-new  1-cont  2-samecut
   ICHARG =      2    charge: 1-file 2-atom 10-const
   ISPIN  =      1    spin polarized calculation?
   LNONCOLLINEAR =      F non collinear calculations
   LSORBIT =      F    spin-orbit coupling
   INIWAV =      1    electr: 0-lowe 1-rand  2-diag
   LASPH  =      F    aspherical Exc in radial PAW
   METAGGA=      F    non-selfconsistent MetaGGA calc.

 Electronic Relaxation 1
   ENCUT  =  400.0 eV  29.40 Ry    5.42 a.u.  24.40 42.27 30.01*2*pi/ulx,y,z
   ENINI  =  400.0     initial cutoff
   ENAUG  =  644.9 eV  augmentation charge cutoff
   NELM   =     60;   NELMIN=  2; NELMDL= -5     # of ELM steps
   EDIFF  = 0.1E-06   stopping-criterion for ELM
   LREAL  =      T    real-space projection
   NLSPLINE    = F    spline interpolate recip. space projectors
   LCOMPAT=      F    compatible to vasp.4.4
   GGA_COMPAT  = T    GGA compatible to vasp.4.4-vasp.4.6
   LMAXPAW     = -100 max onsite density
   LMAXMIX     =    2 max onsite mixed and CHGCAR
   VOSKOWN=      0    Vosko Wilk Nusair interpolation
   ROPT   =   -0.00050
 Ionic relaxation
   EDIFFG = -.5E-01   stopping-criterion for IOM
   NSW    =     50    number of steps for IOM
   NBLOCK =      1;   KBLOCK =     50    inner block; outer block
   IBRION =      2    ionic relax: 0-MD 1-quasi-New 2-CG
   NFREE  =      1    steps in history (QN), initial steepest desc. (CG)
   ISIF   =      4    stress and relaxation
   IWAVPR =     11    prediction:  0-non 1-charg 2-wave 3-comb
   ISYM   =      2    0-nonsym 1-usesym 2-fastsym
   LCORR  =      T    Harris-Foulkes like correction to forces

   POTIM  = 0.5000    time-step for ionic-motion
   TEIN   =    0.0    initial temperature
   TEBEG  =    0.0;   TEEND  =   0.0 temperature during run
   SMASS  =  -3.00    Nose mass-parameter (am)
   estimated Nose-frequenzy (Omega)   =  0.10E-29 period in steps =****** mass=  -0.512E-26a.u.
   SCALEE = 1.0000    scale energy and forces
   NPACO  =    256;   APACO  = 16.0  distance and # of slots for P.C.
   PSTRESS=    0.0 pullay stress

  Mass of Ions in am
   POMASS =  12.01
  Ionic Valenz
   ZVAL   =   4.00
  Atomic Wigner-Seitz radii
  virtual crystal weights
   VCA    =   1.00
   NELECT =    1184.0000    total number of electrons
   NUPDOWN=      -1.0000    fix difference up-down

 DOS related values:
   EMIN   =  10.00;   EMAX   =-10.00  energy-range for DOS
   EFERMI =   0.00
   ISMEAR =     0;   SIGMA  =   0.05  broadening in eV -4-tet -1-fermi 0-gaus

 Electronic relaxation 2 (details)
   IALGO  =     68    algorithm
   LDIAG  =      T    sub-space diagonalisation (order eigenvalues)
   LSUBROT=      F    optimize rotation matrix (better conditioning)
   TURBO    =      0    0=normal 1=particle mesh
   IRESTART =      0    0=no restart 2=restart with 2 vectors
   NREBOOT  =      0    no. of reboots
   NMIN     =      0    reboot dimension
   EREF     =   0.00    reference energy to select bands
   IMIX   =      4    mixing-type and parameters
     AMIX     =   0.40;   BMIX     =  1.00
     AMIX_MAG =   1.60;   BMIX_MAG =  1.00
     AMIN     =   0.10
     WC   =   100.;   INIMIX=   1;  MIXPRE=   1;  MAXMIX= -45

 Intra band minimization:
   WEIMIN = 0.0010     energy-eigenvalue tresh-hold
   EBREAK =  0.34E-10  absolut break condition
   DEPER  =   0.30     relativ break condition

   TIME   =   0.40     timestep for ELM

  volume/ion in A,a.u.               =      24.11       162.69
  Fermi-wavevector in a.u.,A,eV,Ry     =   0.899584  1.699968 11.010545  0.809252
  Thomas-Fermi vector in A             =   2.022436

 Write flags
[...]
   -.424E+00 0.625E+00 0.348E+03   0.419E+00 -.624E+00 -.348E+03   0.116E-01 -.179E-01 -.545E-01   0.746E-04 0.800E-05 -.148E-03
   -.458E+00 0.527E+00 0.348E+03   0.451E+00 -.526E+00 -.348E+03   0.281E-01 -.211E-01 -.376E-01   0.183E-05 -.562E-04 -.167E-03
   0.438E+00 -.584E+00 0.348E+03   -.446E+00 0.575E+00 -.348E+03   -.100E-01 0.206E-01 -.363E-01   -.920E-04 0.327E-04 -.170E-03
   -.417E+00 0.585E+00 0.348E+03   0.403E+00 -.588E+00 -.348E+03   0.232E-01 -.302E-01 -.356E-01   0.188E-04 0.283E-04 -.170E-03
   0.499E+00 -.564E+00 0.348E+03   -.502E+00 0.559E+00 -.348E+03   -.591E-02 0.123E-01 -.317E-01   -.226E-04 0.799E-04 -.186E-03
   -.439E+00 0.594E+00 0.348E+03   0.426E+00 -.600E+00 -.348E+03   0.126E-01 -.246E-01 -.335E-01   0.154E-04 -.137E-04 -.189E-03
   0.494E+00 -.550E+00 0.348E+03   -.489E+00 0.546E+00 -.348E+03   -.152E-01 0.223E-01 -.326E-01   -.153E-04 0.316E-04 -.191E-03
   -.474E+00 0.534E+00 0.348E+03   0.473E+00 -.530E+00 -.348E+03   0.124E-01 -.169E-01 -.330E-01   0.377E-04 -.970E-04 -.188E-03
   0.414E+00 -.587E+00 0.348E+03   -.400E+00 0.588E+00 -.348E+03   -.161E-01 0.258E-01 -.377E-01   -.100E-03 -.495E-04 -.174E-03
   -.440E+00 0.607E+00 0.348E+03   0.444E+00 -.601E+00 -.348E+03   0.673E-02 -.199E-01 -.341E-01   0.107E-03 0.295E-04 -.172E-03
   0.444E+00 -.516E+00 0.348E+03   -.432E+00 0.514E+00 -.348E+03   -.198E-01 0.266E-01 -.415E-01   -.306E-04 0.683E-04 -.160E-03
   -.504E+00 0.566E+00 0.348E+03   0.516E+00 -.555E+00 -.348E+03   0.369E-02 -.236E-01 -.366E-01   0.224E-04 -.456E-04 -.166E-03
   0.446E+00 -.623E+00 0.348E+03   -.438E+00 0.629E+00 -.348E+03   -.172E-01 0.298E-01 -.398E-01   -.174E-04 0.386E-04 -.170E-03
   -.478E+00 0.533E+00 0.348E+03   0.489E+00 -.522E+00 -.348E+03   -.424E-02 -.178E-01 -.369E-01   0.246E-04 -.561E-04 -.183E-03
   0.423E+00 -.604E+00 0.348E+03   -.421E+00 0.608E+00 -.348E+03   -.195E-01 0.296E-01 -.324E-01   -.198E-04 -.861E-05 -.184E-03
   -.412E+00 0.563E+00 0.348E+03   0.417E+00 -.561E+00 -.348E+03   0.536E-02 -.203E-01 -.319E-01   0.104E-03 -.627E-05 -.193E-03
   0.445E+00 -.524E+00 0.348E+03   -.450E+00 0.525E+00 -.348E+03   -.162E-01 0.145E-01 -.272E-01   0.284E-04 0.786E-04 -.194E-03
   -.454E+00 0.605E+00 0.348E+03   0.455E+00 -.611E+00 -.348E+03   0.116E-01 -.182E-01 -.295E-01   0.662E-04 -.348E-04 -.193E-03
   0.440E+00 -.567E+00 0.348E+03   -.443E+00 0.569E+00 -.348E+03   0.754E-03 0.244E-01 -.316E-01   -.587E-04 -.316E-05 -.190E-03
   -.452E+00 0.598E+00 0.348E+03   0.447E+00 -.606E+00 -.348E+03   0.175E-01 -.133E-01 -.361E-01   0.450E-04 -.670E-04 -.180E-03
   0.426E+00 -.625E+00 0.348E+03   -.432E+00 0.619E+00 -.348E+03   -.297E-02 0.232E-01 -.400E-01   -.758E-04 0.274E-04 -.172E-03
   -.438E+00 0.595E+00 0.348E+03   0.428E+00 -.600E+00 -.348E+03   0.270E-01 -.252E-01 -.435E-01   0.425E-05 -.246E-04 -.159E-03
   0.465E+00 -.553E+00 0.348E+03   -.472E+00 0.547E+00 -.348E+03   -.862E-02 0.235E-01 -.308E-01   -.792E-04 -.111E-04 -.181E-03
   -.467E+00 0.526E+00 0.348E+03   0.466E+00 -.525E+00 -.348E+03   0.115E-01 -.252E-01 -.339E-01   0.725E-04 0.430E-04 -.182E-03
   0.454E+00 -.530E+00 0.348E+03   -.462E+00 0.522E+00 -.348E+03   -.122E-01 0.255E-01 -.287E-01   -.477E-04 0.282E-04 -.192E-03
   -.490E+00 0.538E+00 0.348E+03   0.483E+00 -.537E+00 -.348E+03   0.209E-01 -.226E-01 -.294E-01   0.497E-04 -.830E-06 -.197E-03
   0.438E+00 -.554E+00 0.348E+03   -.440E+00 0.549E+00 -.348E+03   -.441E-02 0.210E-01 -.274E-01   0.912E-05 0.546E-04 -.199E-03
   -.502E+00 0.598E+00 0.348E+03   0.495E+00 -.607E+00 -.348E+03   0.137E-01 -.163E-01 -.309E-01   0.465E-04 -.444E-04 -.192E-03
   0.439E+00 -.585E+00 0.348E+03   -.434E+00 0.581E+00 -.348E+03   -.587E-02 0.300E-01 -.347E-01   0.461E-05 0.244E-04 -.180E-03
   -.472E+00 0.588E+00 0.348E+03   0.472E+00 -.590E+00 -.348E+03   0.179E-01 -.781E-02 -.371E-01   0.434E-04 -.864E-04 -.166E-03
   0.424E+00 -.576E+00 0.348E+03   -.417E+00 0.573E+00 -.348E+03   -.185E-01 0.274E-01 -.459E-01   -.232E-04 -.131E-04 -.156E-03
   -.436E+00 0.641E+00 0.348E+03   0.439E+00 -.638E+00 -.348E+03   0.917E-02 -.185E-01 -.452E-01   0.932E-04 0.137E-04 -.154E-03
   0.458E+00 -.562E+00 0.348E+03   -.451E+00 0.558E+00 -.348E+03   -.126E-01 0.219E-01 -.511E-01   -.374E-04 0.641E-04 -.151E-03
   -.475E+00 0.598E+00 0.348E+03   0.483E+00 -.590E+00 -.348E+03   0.620E-02 -.251E-01 -.462E-01   0.160E-05 -.183E-04 -.160E-03
   0.452E+00 -.669E+00 0.348E+03   -.445E+00 0.677E+00 -.348E+03   -.216E-01 0.239E-01 -.446E-01   -.511E-04 0.319E-04 -.161E-03
[...]
   -.477E+00 -.581E+00 -.348E+03   0.473E+00 0.582E+00 0.348E+03   0.129E-01 0.166E-01 0.372E-01   0.120E-03 0.193E-06 0.170E-03
   0.451E+00 0.575E+00 -.348E+03   -.450E+00 -.572E+00 0.348E+03   -.114E-01 -.230E-01 0.347E-01   0.294E-04 0.278E-04 0.178E-03
   -.455E+00 -.570E+00 -.348E+03   0.448E+00 0.573E+00 0.348E+03   0.196E-01 0.152E-01 0.308E-01   0.646E-04 0.289E-04 0.185E-03
   0.446E+00 0.546E+00 -.348E+03   -.448E+00 -.538E+00 0.348E+03   -.122E-01 -.261E-01 0.274E-01   -.280E-04 -.107E-04 0.193E-03
   -.475E+00 -.560E+00 -.348E+03   0.469E+00 0.564E+00 0.348E+03   0.141E-01 0.195E-01 0.293E-01   -.178E-04 0.624E-04 0.192E-03
   0.449E+00 0.566E+00 -.348E+03   -.454E+00 -.561E+00 0.348E+03   -.887E-02 -.239E-01 0.286E-01   -.266E-04 -.606E-04 0.192E-03
   -.489E+00 -.533E+00 -.348E+03   0.487E+00 0.531E+00 0.348E+03   0.196E-01 0.239E-01 0.340E-01   0.406E-04 -.150E-04 0.188E-03
   0.457E+00 0.541E+00 -.348E+03   -.463E+00 -.532E+00 0.348E+03   -.841E-02 -.274E-01 0.308E-01   -.669E-04 -.330E-04 0.186E-03
   -.465E+00 -.545E+00 -.348E+03   0.466E+00 0.540E+00 0.348E+03   0.943E-02 0.249E-01 0.329E-01   0.109E-03 -.226E-04 0.183E-03
   0.465E+00 0.524E+00 -.348E+03   -.466E+00 -.518E+00 0.348E+03   -.761E-02 -.262E-01 0.318E-01   -.717E-04 0.205E-04 0.189E-03
   -.440E+00 -.552E+00 -.348E+03   0.440E+00 0.547E+00 0.348E+03   0.114E-01 0.255E-01 0.288E-01   0.627E-04 0.958E-04 0.191E-03
   -.408E+00 -.532E+00 -.348E+03   0.405E+00 0.524E+00 0.348E+03   0.156E-01 0.264E-01 0.299E-01   0.624E-04 0.983E-05 0.195E-03
   -.434E+00 -.574E+00 -.348E+03   0.433E+00 0.569E+00 0.348E+03   0.958E-02 0.265E-01 0.371E-01   -.896E-05 -.230E-04 0.174E-03
   -.457E+00 -.578E+00 -.348E+03   0.455E+00 0.569E+00 0.348E+03   0.105E-01 0.296E-01 0.479E-01   -.331E-04 0.770E-04 0.152E-03
   -.669E-04 -.141E-03 0.557E-04   0.110E-11 0.572E-12 -.932E-11   0.309E-01 -.661E-03 0.244E-02   -.218E-05 0.190E-05 -.545E-04

 POSITION                                       TOTAL-FORCE (eV/Angst)
      0.60725     24.64781      7.49608        -0.019325      0.019932     -0.033018
      0.40469     22.19478      7.49620        -0.007914      0.019426     -0.019562
      0.20281     19.74158      7.49633        -0.013745      0.020545     -0.007093
      0.00064     17.28845      7.49637        -0.015082      0.025454     -0.002456
      2.83113     25.69940      7.49612        -0.010169      0.004533     -0.026756
      2.02096     24.53440      7.49613        -0.000755     -0.035656     -0.028181
      2.62901     23.24641      7.49616        -0.015823     -0.000085     -0.023592
      1.81880     22.08106      7.49620        -0.003477     -0.035525     -0.019833
      2.42699     20.79299      7.49627        -0.022051      0.017714     -0.012223
      1.61685     19.62750      7.49629         0.002773     -0.017905     -0.009363
      2.22468     18.33982      7.49633        -0.005091      0.024237     -0.005549
      1.41418     17.17447      7.49633         0.023528     -0.016674     -0.005436
      2.02258     15.88694      7.49630        -0.009011      0.019998     -0.009472
      1.21205     14.72131      7.49627         0.019196     -0.020179     -0.010558
      1.82037     13.43337      7.49629        -0.008558      0.034997     -0.010486
      1.00998     12.26770      7.49627         0.011151     -0.010789     -0.010805
      1.61839     10.97990      7.49631        -0.021800      0.026363     -0.007651
      0.80785      9.81457      7.49633         0.007104     -0.014352     -0.006095
      1.41586      8.52657      7.49633        -0.011020      0.025743     -0.005682
      0.60588      7.36130      7.49636         0.005813     -0.018964     -0.003182
      1.21370      6.07320      7.49629        -0.003138      0.023741     -0.008885
      0.40372      4.90798      7.49626         0.023132     -0.019903     -0.012799
      1.01166      3.61974      7.49616        -0.005663      0.016017     -0.021535
      0.20135      2.45485      7.49611         0.018065     -0.023191     -0.027845
      0.80942      1.16643      7.49610        -0.010048      0.016592     -0.029455
     -0.00073      0.00143      7.49600         0.006428     -0.016517     -0.037839
      4.24460     25.58528      7.49624         0.020094     -0.021680     -0.017692
      4.85315     24.29756      7.49620        -0.017255      0.011262     -0.017180
      4.04263     23.13242      7.49627         0.007805     -0.036168     -0.013633
      4.65071     21.84465      7.49626        -0.010091      0.007762     -0.011600
      3.84081     20.67906      7.49630         0.000773     -0.033131     -0.010851
      4.44874     19.39115      7.49628        -0.011501      0.020934     -0.011478
      3.63844     18.22561      7.49628         0.013123     -0.014760     -0.011733
      4.24657     16.93789      7.49621        -0.002994      0.029604     -0.017513
      3.43615     15.77274      7.49624         0.011642     -0.014227     -0.014817
      4.04434     14.48492      7.49616        -0.007265      0.026809     -0.022760
      3.23382     13.31956      7.49621         0.013858     -0.011733     -0.017578
      3.84188     12.03134      7.49617        -0.008915      0.036874     -0.021546
      3.03183     10.86596      7.49623         0.004933     -0.005006     -0.015065
      3.63988      9.57794      7.49627        -0.018426      0.033367     -0.012363
      2.82959      8.41296      7.49631         0.011085     -0.015473     -0.007304
      3.43776      7.12496      7.49632        -0.022256      0.014273     -0.005035
      2.62771      5.95976      7.49633         0.015023     -0.022086     -0.006130
      3.23550      4.67132      7.49628        -0.002311      0.022855     -0.009853
      2.42564      3.50609      7.49622         0.014229     -0.020002     -0.016782
      3.03353      2.21772      7.49617        -0.007213      0.014885     -0.020638
      2.22311      1.05294      7.49612         0.017437     -0.030459     -0.026255
      7.07713     25.34925      7.49632        -0.013369      0.017567     -0.008528
      6.26660     24.18381      7.49630         0.007508     -0.025861     -0.009276
      6.87481     22.89599      7.49633        -0.019254      0.017998     -0.006559
      6.06427     21.73058      7.49638         0.013994     -0.023590     -0.002129
      6.67234     20.44282      7.49632        -0.006358      0.016096     -0.005778
      5.86251     19.27723      7.49633         0.009289     -0.026761     -0.006284
      6.47038     17.98916      7.49622        -0.000980      0.027285     -0.015996
      5.66031     16.82380      7.49622         0.019865     -0.010149     -0.017551
      6.26855     15.53588      7.49611        -0.011503      0.025196     -0.029017
      5.45802     14.37105      7.49613         0.011851     -0.015394     -0.027877
      6.06591     13.08280      7.49606        -0.005493      0.019351     -0.034076
      5.25555     11.91766      7.49610         0.013049     -0.015832     -0.028600
      5.86369     10.62926      7.49613        -0.016033      0.031270     -0.026703
[...]
     13.74845     23.36616     10.89501         0.003616     -0.022134      0.028643
     13.14077     22.07799     10.89490         0.011827      0.018554      0.017568
     13.95099     20.91276     10.89490        -0.011336     -0.020293      0.015949
     13.34293     19.62488     10.89478         0.015404      0.020127      0.006238
     14.15324     18.45953     10.89480        -0.014232     -0.019217      0.005804
     13.54512     17.17175     10.89474         0.007816      0.024642      0.002065
     14.35522     16.00612     10.89480        -0.013812     -0.018471      0.006464
     13.74683     14.71835     10.89482         0.014935      0.023049      0.009315
     14.55753     13.55295     10.89480        -0.012913     -0.019342      0.008456
     13.94924     12.26509     10.89483         0.008541      0.021258      0.011228
     14.75969     11.09959     10.89479        -0.006620     -0.021258      0.005930
     14.15154      9.81180     10.89480         0.010945      0.020195      0.006661
     14.35365      7.35842     10.89481         0.013287      0.017500      0.008067
     14.55588      4.90517     10.89492         0.008856      0.020690      0.018699
     14.75800      2.45179     10.89503         0.008249      0.020716      0.031281
    total drift:                                0.030786     -0.000800      0.002443

  FREE ENERGIE OF THE ION-ELECTRON SYSTEM (eV)
  free  energy   TOTEN  =     -2757.70175067 eV

  energy  without entropy=    -2757.70175067  energy(sigma->0) =    -2757.70175067

 d Force = 0.4362301E-03[ 0.372E-03, 0.500E-03]  d Energy =-0.1125658E-03 0.549E-03
 d Force =-0.5107852E+00[-0.511E+00,-0.511E+00]  d Ewald  =-0.9497542E+01 0.899E+01

 reached required accuracy - stopping structural energy minimisation
 writing wavefunctions

 total charge

# of ion       s       p       d       tot
    1        0.868   1.797   0.000   2.665
    2        0.868   1.797   0.000   2.665
    3        0.868   1.797   0.000   2.665
    4        0.868   1.798   0.000   2.665
    5        0.868   1.797   0.000   2.665
    6        0.868   1.797   0.000   2.665
    7        0.868   1.797   0.000   2.665
    8        0.868   1.797   0.000   2.664
    9        0.868   1.797   0.000   2.664
   10        0.868   1.796   0.000   2.664
   11        0.868   1.797   0.000   2.665
   12        0.868   1.796   0.000   2.664
   13        0.868   1.797   0.000   2.665
   14        0.868   1.796   0.000   2.664
   15        0.868   1.797   0.000   2.665
   16        0.868   1.797   0.000   2.665
   17        0.868   1.796   0.000   2.664
   18        0.868   1.797   0.000   2.665
   19        0.868   1.796   0.000   2.664
   20        0.868   1.797   0.000   2.665
   21        0.868   1.796   0.000   2.664
   22        0.868   1.797   0.000   2.665
   23        0.868   1.797   0.000   2.665
   24        0.868   1.797   0.000   2.665
   25        0.868   1.797   0.000   2.665
   26        0.868   1.797   0.000   2.665
   27        0.868   1.797   0.000   2.665
   28        0.868   1.797   0.000   2.665
   29        0.868   1.797   0.000   2.665
   30        0.868   1.796   0.000   2.664
   31        0.868   1.797   0.000   2.665
   32        0.868   1.797   0.000   2.664
   33        0.868   1.797   0.000   2.664
   34        0.868   1.797   0.000   2.665
   35        0.868   1.797   0.000   2.665
   36        0.868   1.797   0.000   2.665
   37        0.868   1.796   0.000   2.664
   38        0.868   1.797   0.000   2.665
   39        0.868   1.797   0.000   2.665
   40        0.868   1.797   0.000   2.665
   41        0.868   1.797   0.000   2.665
   42        0.868   1.797   0.000   2.665
   43        0.868   1.797   0.000   2.664
   44        0.868   1.797   0.000   2.664
   45        0.868   1.797   0.000   2.665
   46        0.868   1.797   0.000   2.665
   47        0.868   1.797   0.000   2.665
   48        0.868   1.797   0.000   2.665
   49        0.868   1.797   0.000   2.665
   50        0.868   1.796   0.000   2.664
   51        0.868   1.797   0.000   2.665
   52        0.868   1.796   0.000   2.664
   53        0.868   1.797   0.000   2.665
   54        0.868   1.796   0.000   2.664
   55        0.868   1.797   0.000   2.665
   56        0.868   1.797   0.000   2.665
   57        0.868   1.797   0.000   2.665
   58        0.868   1.797   0.000   2.665
   59        0.868   1.797   0.000   2.664
   60        0.868   1.797   0.000   2.665
[...]
  282        0.868   1.797   0.000   2.665
  283        0.868   1.797   0.000   2.665
  284        0.868   1.797   0.000   2.665
  285        0.868   1.797   0.000   2.665
  286        0.868   1.796   0.000   2.664
  287        0.868   1.797   0.000   2.665
  288        0.868   1.796   0.000   2.664
  289        0.868   1.797   0.000   2.665
  290        0.868   1.797   0.000   2.664
  291        0.868   1.797   0.000   2.664
  292        0.868   1.797   0.000   2.665
  293        0.868   1.796   0.000   2.664
  294        0.868   1.796   0.000   2.664
  295        0.868   1.797   0.000   2.665
  296        0.868   1.797   0.000   2.665
tot        256.884 531.863   0.000 788.747