 vasp.5.4.4.18Apr17-6-g9f103f2a35 (build May 21 2018 20:56:50) complex
 executed on             LinuxGNU date 2019.10.25  22:22:58

 INCAR:
 POTCAR:    PAW_PBE C 08Apr2002
 POTCAR:    PAW_PBE C 08Apr2002
   VRHFIN =C: s2p2

   TITEL  = PAW_PBE C 08Apr2002
   POMASS =   12.011; ZVAL   =    4.000    mass and valenz
   ENMAX  =  400.000; ENMIN  =  300.000 eV

 Optimization of the real space projectors (new method)

 maximal supplied QI-value         = 25.13
 optimisation between [QCUT,QGAM] = [ 10.05, 20.36] = [ 28.30,116.06] Ry
 Optimized for a Real-space Cutoff    1.30 Angstroem

   l    n(q)    QCUT    max X(q) W(low)/X(q) W(high)/X(q)  e(spline)
   0      8    10.053   115.676    0.49E-03    0.72E-03    0.18E-06
   0      8    10.053    87.132    0.49E-03    0.71E-03    0.18E-06
   1      7    10.053     4.429    0.32E-03    0.31E-03    0.18E-06
   1      7    10.053     2.733    0.23E-03    0.19E-03    0.20E-06
  PAW_PBE C 08Apr2002                   :

 POSCAR: POSCAR file written by OVITO
  positions in cartesian coordinates
 exchange correlation table for  LEXCH =        8
   RHO(1)=    0.500       N(1)  =     2000
   RHO(2)=  100.500       N(2)  =     4000

 ion  position               nearest neighbor table
   1  0.027  0.969  0.408-   8 1.42 338 1.42  40 1.42
   2  0.022  0.908  0.408- 338 1.42  10 1.42 339 1.42
   3  0.016  0.848  0.408-  12 1.42 340 1.42 339 1.42
   4  0.011  0.788  0.408-  14 1.42 341 1.42 340 1.42
   5  0.005  0.727  0.408- 341 1.42  16 1.42 342 1.42
   6  0.000  0.667  0.408-  18 1.42 343 1.42 342 1.42
   7  0.121  0.996  0.408-  41 1.42   8 1.42  73 1.42
   8  0.088  0.967  0.408-   1 1.42   7 1.42   9 1.42
   9  0.115  0.936  0.408-  43 1.42  10 1.42   8 1.42
  10  0.082  0.907  0.408-  11 1.42   2 1.42   9 1.42
  11  0.110  0.875  0.408-  10 1.42  45 1.42  12 1.42
  12  0.077  0.846  0.408-   3 1.42  11 1.42  13 1.42
  13  0.104  0.815  0.408-  47 1.42  14 1.42  12 1.42
  14  0.071  0.786  0.408-   4 1.42  15 1.42  13 1.42
  15  0.099  0.755  0.408-  14 1.42  49 1.42  16 1.42
  16  0.066  0.725  0.408-  17 1.42   5 1.42  15 1.42
  17  0.093  0.694  0.408-  16 1.42  51 1.42  18 1.42
  18  0.060  0.665  0.408-   6 1.42  17 1.42  19 1.42
  19  0.088  0.634  0.408-  53 1.42  20 1.42  18 1.42
  20  0.055  0.604  0.408- 344 1.42  21 1.42  19 1.42
  21  0.082  0.573  0.408-  20 1.42  55 1.42  22 1.42
  22  0.049  0.544  0.408- 346 1.42  21 1.42  23 1.42
  23  0.077  0.513  0.408-  24 1.42  57 1.42  22 1.42
  24  0.044  0.484  0.408-  23 1.42  25 1.42 348 1.42
  25  0.071  0.452  0.408-  26 1.42  24 1.42  59 1.42
  26  0.038  0.423  0.408-  27 1.42  25 1.42 350 1.42
  27  0.066  0.392  0.408-  26 1.42  28 1.42  61 1.42
  28  0.033  0.363  0.408-  27 1.42  29 1.42 352 1.42
  29  0.060  0.331  0.408-  30 1.42  28 1.42  63 1.42
  30  0.027  0.302  0.408-  31 1.42  29 1.42 354 1.42
  31  0.055  0.271  0.408-  30 1.42  32 1.42  65 1.42
  32  0.022  0.242  0.408-  33 1.42  31 1.42 356 1.42
  33  0.049  0.211  0.408-  32 1.42  34 1.42  67 1.42
  34  0.016  0.181  0.408-  33 1.42 358 1.42  35 1.42
  35  0.044  0.150  0.408-  69 1.42  36 1.42  34 1.42
  36  0.011  0.121  0.408-  37 1.42  35 1.42 360 1.42
  37  0.038  0.090  0.408-  36 1.42  71 1.42  38 1.42
  38  0.005  0.060  0.408- 362 1.42  37 1.42  39 1.42
  39  0.033  0.029  0.408-  73 1.42  40 1.42  38 1.42
  40  0.000  0.000  0.408- 364 1.42  39 1.42   1 1.42
  41  0.181  0.995  0.408-   7 1.42 106 1.42  42 1.42
  42  0.209  0.963  0.408-  75 1.42  43 1.42  41 1.42
  43  0.176  0.934  0.408-   9 1.42  42 1.42  44 1.42
  44  0.203  0.903  0.408-  77 1.42  45 1.42  43 1.42
  45  0.170  0.874  0.408-  46 1.42  11 1.42  44 1.42
  46  0.198  0.842  0.408-  45 1.42  79 1.42  47 1.42
  47  0.165  0.813  0.408-  13 1.42  46 1.42  48 1.42
  48  0.192  0.782  0.408-  81 1.42  49 1.42  47 1.42
  49  0.159  0.753  0.408-  50 1.42  15 1.42  48 1.42
  50  0.187  0.722  0.408-  49 1.42  83 1.42  51 1.42
  51  0.154  0.692  0.408-  52 1.42  17 1.42  50 1.42
  52  0.181  0.661  0.408-  51 1.42  85 1.42  53 1.42
  53  0.148  0.632  0.408-  19 1.42  52 1.42  54 1.42
  54  0.176  0.601  0.408-  87 1.42  55 1.42  53 1.42
  55  0.143  0.571  0.408-  56 1.42  21 1.42  54 1.42
  56  0.170  0.540  0.408-  55 1.42  89 1.42  57 1.42
  57  0.137  0.511  0.408-  23 1.42  56 1.42  58 1.42
  58  0.165  0.480  0.408-  59 1.42  57 1.42  91 1.42
  59  0.132  0.451  0.408-  58 1.42  60 1.42  25 1.42
  60  0.159  0.419  0.408-  61 1.42  59 1.42  93 1.42
[...]
 714  0.973  0.636  0.592- 713 1.42 715 1.42 383 1.42
 715  0.945  0.604  0.592- 716 1.42 714 1.42 682 1.42
 716  0.978  0.575  0.592- 715 1.42 717 1.42 385 1.42
 717  0.951  0.544  0.592- 716 1.42 684 1.42 718 1.42
 718  0.984  0.515  0.592- 719 1.42 387 1.42 717 1.42
 719  0.956  0.484  0.592- 686 1.42 718 1.42 720 1.42
 720  0.989  0.454  0.592- 389 1.42 719 1.42 721 1.42
 721  0.962  0.423  0.592- 688 1.42 722 1.42 720 1.42
 722  0.995  0.394  0.592- 391 1.42 723 1.42 721 1.42
 723  0.967  0.363  0.592- 722 1.42 690 1.42 365 1.42
 724  0.973  0.302  0.592- 692 1.42 366 1.42 365 1.42
 725  0.978  0.242  0.592- 694 1.42 367 1.42 366 1.42
 726  0.984  0.181  0.592- 367 1.42 696 1.42 368 1.42
 727  0.989  0.121  0.592- 698 1.42 369 1.42 368 1.42
 728  0.995  0.060  0.592- 369 1.42 700 1.42 370 1.42

  LATTYP: Found a simple orthorhombic cell.
 ALAT       =    18.4000000000
 B/A-ratio  =     1.2753752011
 C/A-ratio  =     2.2090146848

  Lattice vectors:

 A1 = (   0.0000000000,   0.0000000000,  18.4000000000)
 A2 = ( -23.4669037000,   0.0000000000,   0.0000000000)
 A3 = (   0.0000000000, -40.6458702000,   0.0000000000)

Analysis of symmetry for initial positions (statically):
 Subroutine PRICEL returns:
 Original cell was already a primitive cell.

 Routine SETGRP: Setting up the symmetry group for a
 simple orthorhombic supercell.

 Subroutine GETGRP returns: Found  1 space group operations
 (whereof  1 operations were pure point group operations)
 out of a pool of  8 trial point group operations.

The static configuration has the point symmetry C_1 .

Analysis of symmetry for dynamics (positions and initial velocities):
 Subroutine PRICEL returns:
 Original cell was already a primitive cell.

 Routine SETGRP: Setting up the symmetry group for a
 simple orthorhombic supercell.

 Subroutine GETGRP returns: Found  1 space group operations
 (whereof  1 operations were pure point group operations)
 out of a pool of  8 trial point group operations.

The dynamic configuration has the point symmetry C_1 .

 Subroutine INISYM returns: Found  1 space group operations
 (whereof  1 operations are pure point group operations),
 and found     1 'primitive' translations

 KPOINTS: K-Points

Automatic generation of k-mesh.
Space group operators:
 irot       det(A)        alpha          n_x          n_y          n_z        tau_x        tau_y        tau_z
    1     1.000000     0.000000     1.000000     0.000000     0.000000     0.000000     0.000000     0.000000

 Subroutine IBZKPT returns following result:

 Found      1 irreducible k-points:

 Following reciprocal coordinates:
            Coordinates               Weight
  0.000000  0.000000  0.000000      1.000000

 Following cartesian coordinates:
            Coordinates               Weight
  0.000000  0.000000  0.000000      1.000000

 SYSTEM =  unknown system
 POSCAR =  POSCAR file written by OVITO

 Startparameter for this run:
   NWRITE =      2    write-flag & timer
   PREC   = normal    normal or accurate (medium, high low for compatibility)
   ISTART =      0    job   : 0-new  1-cont  2-samecut
   ICHARG =      2    charge: 1-file 2-atom 10-const
   ISPIN  =      1    spin polarized calculation?
   LNONCOLLINEAR =      F non collinear calculations
   LSORBIT =      F    spin-orbit coupling
   INIWAV =      1    electr: 0-lowe 1-rand  2-diag
   LASPH  =      F    aspherical Exc in radial PAW
   METAGGA=      F    non-selfconsistent MetaGGA calc.

 Electronic Relaxation 1
   ENCUT  =  400.0 eV  29.40 Ry    5.42 a.u.  38.27 66.28 30.01*2*pi/ulx,y,z
   ENINI  =  400.0     initial cutoff
   ENAUG  =  644.9 eV  augmentation charge cutoff
   NELM   =     60;   NELMIN=  2; NELMDL= -5     # of ELM steps
   EDIFF  = 0.1E-06   stopping-criterion for ELM
   LREAL  =      T    real-space projection
   NLSPLINE    = F    spline interpolate recip. space projectors
   LCOMPAT=      F    compatible to vasp.4.4
   GGA_COMPAT  = T    GGA compatible to vasp.4.4-vasp.4.6
   LMAXPAW     = -100 max onsite density
   LMAXMIX     =    2 max onsite mixed and CHGCAR
   VOSKOWN=      0    Vosko Wilk Nusair interpolation
   ROPT   =   -0.00050
 Ionic relaxation
   EDIFFG = -.5E-01   stopping-criterion for IOM
   NSW    =     50    number of steps for IOM
   NBLOCK =      1;   KBLOCK =     50    inner block; outer block
   IBRION =      2    ionic relax: 0-MD 1-quasi-New 2-CG
   NFREE  =      1    steps in history (QN), initial steepest desc. (CG)
   ISIF   =      4    stress and relaxation
   IWAVPR =     11    prediction:  0-non 1-charg 2-wave 3-comb
   ISYM   =      2    0-nonsym 1-usesym 2-fastsym
   LCORR  =      T    Harris-Foulkes like correction to forces

   POTIM  = 0.5000    time-step for ionic-motion
   TEIN   =    0.0    initial temperature
   TEBEG  =    0.0;   TEEND  =   0.0 temperature during run
   SMASS  =  -3.00    Nose mass-parameter (am)
   estimated Nose-frequenzy (Omega)   =  0.10E-29 period in steps =****** mass=  -0.126E-25a.u.
   SCALEE = 1.0000    scale energy and forces
   NPACO  =    256;   APACO  = 16.0  distance and # of slots for P.C.
   PSTRESS=    0.0 pullay stress

  Mass of Ions in am
   POMASS =  12.01
  Ionic Valenz
   ZVAL   =   4.00
  Atomic Wigner-Seitz radii
  virtual crystal weights
   VCA    =   1.00
   NELECT =    2912.0000    total number of electrons
   NUPDOWN=      -1.0000    fix difference up-down

 DOS related values:
   EMIN   =  10.00;   EMAX   =-10.00  energy-range for DOS
   EFERMI =   0.00
   ISMEAR =     0;   SIGMA  =   0.05  broadening in eV -4-tet -1-fermi 0-gaus

 Electronic relaxation 2 (details)
   IALGO  =     68    algorithm
   LDIAG  =      T    sub-space diagonalisation (order eigenvalues)
   LSUBROT=      F    optimize rotation matrix (better conditioning)
   TURBO    =      0    0=normal 1=particle mesh
   IRESTART =      0    0=no restart 2=restart with 2 vectors
   NREBOOT  =      0    no. of reboots
   NMIN     =      0    reboot dimension
   EREF     =   0.00    reference energy to select bands
   IMIX   =      4    mixing-type and parameters
     AMIX     =   0.40;   BMIX     =  1.00
     AMIX_MAG =   1.60;   BMIX_MAG =  1.00
     AMIN     =   0.10
     WC   =   100.;   INIMIX=   1;  MIXPRE=   1;  MAXMIX= -45

 Intra band minimization:
   WEIMIN = 0.0010     energy-eigenvalue tresh-hold
   EBREAK =  0.14E-10  absolut break condition
   DEPER  =   0.30     relativ break condition

   TIME   =   0.40     timestep for ELM

  volume/ion in A,a.u.               =      24.11       162.69
  Fermi-wavevector in a.u.,A,eV,Ry     =   0.899584  1.699968 11.010544  0.809252
  Thomas-Fermi vector in A             =   2.022436

 Write flags
   LWAVE        =      T    write WAVECAR
[...]
   -.984E-01 0.133E+00 0.347E+03   0.974E-01 -.122E+00 -.347E+03   -.707E-03 -.978E-02 -.309E-01   0.127E-06 -.213E-06 -.432E-06
   0.138E+00 -.184E+00 0.347E+03   -.142E+00 0.179E+00 -.347E+03   0.390E-03 0.115E-01 -.311E-01   0.794E-07 -.763E-06 -.496E-06
   -.635E-01 0.633E-01 0.347E+03   0.546E-01 -.440E-01 -.347E+03   -.113E-02 0.973E-03 -.291E-01   0.235E-06 0.217E-07 -.605E-06
   0.603E-01 -.893E-01 0.347E+03   -.567E-01 0.698E-01 -.347E+03   -.135E-02 -.859E-03 -.268E-01   0.337E-06 0.160E-06 -.735E-06
   -.187E+00 0.147E+00 0.347E+03   0.188E+00 -.138E+00 -.347E+03   0.126E-03 -.154E-02 -.296E-01   0.322E-06 0.434E-06 -.684E-06
   0.575E-01 -.217E+00 0.347E+03   -.503E-01 0.218E+00 -.347E+03   0.131E-03 0.408E-02 -.292E-01   0.255E-06 0.294E-06 -.626E-06
   -.124E+00 0.247E+00 0.347E+03   0.115E+00 -.248E+00 -.347E+03   0.102E-01 -.592E-02 -.328E-01   0.130E-06 0.407E-06 -.559E-06
   0.134E+00 -.210E+00 0.347E+03   -.134E+00 0.205E+00 -.347E+03   0.431E-02 0.193E-02 -.323E-01   0.189E-08 -.112E-06 -.419E-06
   -.162E+00 0.236E+00 0.347E+03   0.161E+00 -.229E+00 -.347E+03   0.324E-02 0.668E-02 -.400E-01   -.427E-06 -.168E-06 -.300E-06
   0.379E-01 -.157E+00 0.347E+03   -.230E-01 0.146E+00 -.347E+03   0.976E-02 0.350E-02 -.361E-01   -.331E-06 0.110E-06 -.139E-06
   -.210E+00 0.338E+00 0.347E+03   0.214E+00 -.345E+00 -.347E+03   0.834E-02 -.632E-02 -.457E-01   0.474E-07 0.657E-06 -.251E-07
   0.972E-01 -.243E+00 0.347E+03   -.919E-01 0.238E+00 -.347E+03   0.376E-02 0.118E-01 -.444E-01   -.248E-07 0.648E-07 -.886E-08
   -.116E+00 0.256E+00 0.347E+03   0.106E+00 -.252E+00 -.347E+03   0.367E-02 -.215E-02 -.506E-01   0.166E-06 0.851E-07 0.833E-07
   0.102E+00 -.335E+00 0.347E+03   -.983E-01 0.331E+00 -.347E+03   0.501E-02 0.794E-02 -.484E-01   0.324E-06 0.814E-08 0.528E-07
   -.843E-01 0.314E+00 0.347E+03   0.781E-01 -.312E+00 -.347E+03   -.301E-02 -.439E-02 -.512E-01   -.539E-06 -.424E-06 0.461E-07
   -.971E-01 0.109E+00 0.347E+03   0.884E-01 -.994E-01 -.347E+03   0.893E-02 -.534E-02 -.449E-01   0.487E-06 0.478E-06 -.464E-07
   0.102E+00 -.218E+00 0.347E+03   -.104E+00 0.197E+00 -.347E+03   0.703E-02 0.277E-02 -.426E-01   0.696E-06 0.664E-06 -.152E-07
   -.650E-01 0.230E+00 0.347E+03   0.518E-01 -.225E+00 -.347E+03   0.537E-03 -.710E-02 -.448E-01   0.187E-06 0.355E-07 0.164E-07
   0.129E+00 -.191E+00 0.347E+03   -.128E+00 0.170E+00 -.347E+03   -.411E-02 -.196E-02 -.388E-01   0.279E-06 -.219E-06 -.517E-07
   -.636E-01 0.228E+00 0.347E+03   0.500E-01 -.229E+00 -.347E+03   0.514E-02 -.123E-01 -.410E-01   0.411E-06 -.742E-07 -.164E-06
   0.175E+00 -.242E+00 0.347E+03   -.177E+00 0.234E+00 -.347E+03   -.118E-02 0.790E-02 -.330E-01   -.754E-07 -.525E-06 -.284E-06
   -.267E-01 0.122E+00 0.347E+03   0.770E-02 -.105E+00 -.347E+03   0.654E-02 -.604E-02 -.343E-01   0.269E-06 -.123E-06 -.439E-06
   0.855E-01 -.188E+00 0.347E+03   -.754E-01 0.170E+00 -.347E+03   -.594E-02 -.492E-02 -.322E-01   0.143E-06 0.403E-06 -.539E-06
   -.121E+00 0.127E+00 0.347E+03   0.114E+00 -.110E+00 -.347E+03   0.318E-02 -.101E-01 -.293E-01   0.123E-06 0.390E-06 -.552E-06
   0.708E-01 -.193E+00 0.347E+03   -.549E-01 0.186E+00 -.347E+03   -.819E-02 0.329E-02 -.319E-01   -.278E-07 -.175E-06 -.504E-06
   -.107E+00 0.196E+00 0.347E+03   0.994E-01 -.181E+00 -.347E+03   0.279E-02 -.738E-02 -.281E-01   -.939E-07 -.655E-07 -.448E-06
   0.112E+00 -.172E+00 0.347E+03   -.104E+00 0.165E+00 -.347E+03   -.392E-02 0.503E-02 -.336E-01   -.266E-06 -.734E-06 -.443E-06
   -.942E-01 0.139E+00 0.347E+03   0.927E-01 -.112E+00 -.347E+03   -.923E-03 0.120E-02 -.282E-01   -.410E-06 -.788E-06 -.450E-06
   0.368E-01 -.939E-01 0.347E+03   -.203E-01 0.826E-01 -.347E+03   -.757E-02 0.253E-02 -.344E-01   -.475E-06 -.320E-06 -.346E-06
   -.197E+00 0.204E+00 0.347E+03   0.207E+00 -.192E+00 -.347E+03   -.694E-02 -.103E-01 -.314E-01   0.709E-07 0.407E-06 -.360E-06
   0.653E-01 -.225E+00 0.347E+03   -.540E-01 0.232E+00 -.347E+03   -.133E-02 0.104E-01 -.350E-01   -.265E-06 0.160E-07 -.213E-06
   -.803E-01 0.155E+00 0.347E+03   0.759E-01 -.137E+00 -.347E+03   -.117E-01 -.539E-03 -.346E-01   0.407E-06 0.634E-06 -.231E-06
   0.130E+00 -.213E+00 0.347E+03   -.131E+00 0.211E+00 -.347E+03   -.109E-02 0.519E-02 -.351E-01   0.568E-06 0.383E-06 -.101E-06
   -.126E+00 0.175E+00 0.347E+03   0.129E+00 -.162E+00 -.347E+03   -.143E-01 -.362E-02 -.364E-01   -.153E-06 -.518E-07 -.165E-06
   0.122E+00 -.172E+00 0.347E+03   -.122E+00 0.169E+00 -.347E+03   -.546E-02 0.380E-02 -.333E-01   -.179E-06 -.399E-06 -.262E-06
[...]
   -.164E+00 -.784E-01 -.347E+03   0.167E+00 0.579E-01 0.347E+03   0.580E-02 0.237E-03 0.292E-01   -.226E-06 0.200E-06 0.545E-06
   0.143E+00 0.114E+00 -.347E+03   -.151E+00 -.975E-01 0.347E+03   0.287E-02 -.259E-02 0.271E-01   -.215E-06 0.704E-06 0.473E-06
   -.693E-01 -.179E+00 -.347E+03   0.643E-01 0.176E+00 0.347E+03   -.420E-02 0.106E-01 0.289E-01   -.135E-06 -.954E-07 0.467E-06
   0.172E+00 0.189E+00 -.347E+03   -.181E+00 -.185E+00 0.347E+03   0.449E-02 -.123E-01 0.290E-01   0.586E-07 0.196E-06 0.489E-06
   -.872E-01 -.175E+00 -.347E+03   0.866E-01 0.166E+00 0.347E+03   -.346E-02 0.106E-01 0.277E-01   0.273E-06 -.749E-07 0.476E-06
   0.486E-01 0.172E+00 -.347E+03   -.448E-01 -.164E+00 0.347E+03   0.694E-02 -.205E-03 0.309E-01   0.628E-06 -.494E-06 0.521E-06
   -.128E+00 -.897E-01 -.347E+03   0.132E+00 0.740E-01 0.347E+03   0.324E-02 0.728E-02 0.271E-01   0.335E-06 -.289E-06 0.489E-06
   0.950E-01 0.142E+00 -.347E+03   -.909E-01 -.140E+00 0.347E+03   -.568E-03 -.700E-02 0.312E-01   0.164E-06 0.223E-06 0.484E-06
   -.139E+00 -.142E+00 -.347E+03   0.144E+00 0.135E+00 0.347E+03   -.581E-03 0.118E-01 0.260E-01   0.311E-06 -.411E-06 0.549E-06
   -.178E-01 -.187E+00 -.347E+03   0.758E-02 0.176E+00 0.347E+03   -.844E-03 0.699E-02 0.274E-01   -.363E-06 0.234E-06 0.599E-06
   -.106E+00 -.957E-01 -.347E+03   0.101E+00 0.777E-01 0.347E+03   -.894E-03 -.264E-03 0.318E-01   0.123E-06 -.310E-07 0.512E-06
   -.963E-01 -.167E+00 -.347E+03   0.897E-01 0.156E+00 0.347E+03   -.445E-02 0.104E-01 0.360E-01   0.363E-06 -.499E-06 0.338E-06
   -.143E-01 -.150E+00 -.347E+03   -.185E-02 0.133E+00 0.347E+03   -.205E-02 0.117E-02 0.414E-01   -.980E-07 0.280E-06 0.185E-06
   -.138E+00 -.291E+00 -.347E+03   0.136E+00 0.289E+00 0.347E+03   0.181E-02 0.681E-02 0.477E-01   -.167E-06 -.151E-07 0.292E-07
   0.152E-03 -.282E-05 -.350E-03   0.361E-11 0.945E-12 -.243E-10   0.472E-01 0.368E-02 0.149E-02   -.749E-07 -.326E-07 -.488E-05

 POSITION                                       TOTAL-FORCE (eV/Angst)
      0.64540     39.43587      7.48007        -0.002725     -0.009516     -0.035673
      0.51601     36.97549      7.48032        -0.008666      0.006593     -0.031732
      0.38653     34.51563      7.48072        -0.003557     -0.004896     -0.022565
      0.25762     32.05581      7.48104        -0.003584     -0.018562     -0.014043
      0.12893     29.59560      7.48151        -0.000187      0.000887     -0.008271
     -0.00007     27.13589      7.48164         0.008187     -0.020344     -0.004924
      2.83957     40.55396      7.48013         0.009950     -0.011246     -0.032964
      2.06515     39.36254      7.47998        -0.014335      0.000131     -0.034246
      2.71042     38.09427      7.48023        -0.006542     -0.021093     -0.033197
      1.93569     36.90257      7.48026        -0.009104     -0.008199     -0.030111
      2.58097     35.63383      7.48055        -0.007188      0.005507     -0.024885
      1.80625     34.44220      7.48076        -0.010769      0.005993     -0.020662
      2.45177     33.17404      7.48124         0.002008     -0.011449     -0.014895
      1.67750     31.98220      7.48130        -0.010881     -0.004496     -0.012053
      2.32308     30.71378      7.48139        -0.003853      0.011740     -0.009414
      1.54863     29.52214      7.48156        -0.007015     -0.004374     -0.006937
      2.19409     28.25386      7.48160         0.004765      0.000390     -0.007509
      1.41967     27.06179      7.48159        -0.003965      0.020501     -0.003986
      2.06516     25.79407      7.48167         0.010418     -0.011898     -0.006066
      1.29062     24.60198      7.48165        -0.002929     -0.004496     -0.004956
      1.93615     23.33356      7.48139         0.004504      0.013461     -0.007318
      1.16136     22.14150      7.48153        -0.005960      0.013933     -0.008245
      1.80670     20.87358      7.48121         0.013576     -0.005278     -0.009657
      1.03193     19.68139      7.48142         0.007416      0.013768     -0.010296
      1.67804     18.41365      7.48126        -0.005996     -0.008149     -0.011431
      0.90340     17.22150      7.48132        -0.004628      0.001435     -0.007519
      1.54883     15.95325      7.48158        -0.002829      0.006730     -0.008173
      0.77428     14.76117      7.48161        -0.011252      0.020843     -0.003202
      1.41959     13.49346      7.48165         0.002095     -0.020605     -0.004238
      0.64512     12.30126      7.48156         0.002483      0.007753     -0.003963
      1.29079     11.03306      7.48161         0.006940      0.004537     -0.006730
      0.51658      9.84135      7.48131         0.003923     -0.005737     -0.009141
      1.16201      8.57291      7.48111         0.004813     -0.004413     -0.013644
      0.38782      7.38099      7.48101         0.005352      0.013982     -0.018235
      1.03303      6.11262      7.48057         0.024632     -0.008591     -0.021204
      0.25861      4.92107      7.48053         0.015133     -0.013383     -0.027543
      0.90408      3.65213      7.48020         0.009170      0.005627     -0.030246
      0.12949      2.46067      7.48012        -0.004859      0.002201     -0.034443
      0.77474      1.19182      7.48001         0.008739      0.004030     -0.034391
      0.00028      0.00061      7.48002        -0.009187     -0.002608     -0.036253
      4.25920     40.47982      7.48034        -0.000662      0.003159     -0.029141
      4.90444     39.21157      7.48045         0.005359     -0.018994     -0.027027
      4.12992     38.01986      7.48047        -0.013572     -0.004076     -0.027698
      4.77531     36.75176      7.48058        -0.003805     -0.022549     -0.023499
      4.00064     35.56007      7.48087        -0.008802     -0.015494     -0.022040
      4.64624     34.29173      7.48098        -0.004877      0.001167     -0.015272
      3.87164     33.09986      7.48106        -0.012114      0.008307     -0.015601
      4.51719     31.83225      7.48129         0.001763     -0.020547     -0.011164
      3.74268     30.64020      7.48141        -0.002630      0.005894     -0.008816
      4.38816     29.37240      7.48150         0.005981     -0.001831     -0.008556
      3.61381     28.18040      7.48136        -0.003639      0.006387     -0.008249
      4.25950     26.91253      7.48142         0.004339      0.001041     -0.010280
      3.48486     25.72042      7.48140        -0.002270      0.028784     -0.008585
      4.13031     24.45274      7.48123         0.010337     -0.006072     -0.012599
      3.35555     23.26076      7.48116         0.001431      0.002552     -0.012392
      4.00106     21.99224      7.48112         0.012126      0.019399     -0.014857
      3.22651     20.80035      7.48117        -0.018419      0.018428     -0.014341
      3.87207     19.53215      7.48090         0.000243      0.004510     -0.016700
      3.09756     18.34020      7.48115        -0.013985      0.010986     -0.014687
      3.74288     17.07171      7.48121        -0.004722      0.001172     -0.013191
[...]
     22.84526     25.86901     10.87346         0.001093      0.019351      0.003617
     22.19954     24.60118     10.87358         0.007298     -0.019061      0.004519
     22.97449     23.40880     10.87355        -0.004278      0.013572      0.005069
     22.32873     22.14062     10.87371        -0.012232      0.009415      0.006336
     23.10339     20.94878     10.87374        -0.002160     -0.008835      0.007813
     22.45797     19.68045     10.87375        -0.006630      0.001605      0.006773
     23.23247     18.48841     10.87367         0.013680      0.008491      0.007300
     22.58676     17.22053     10.87380         0.005095     -0.008208      0.006529
     23.36164     16.02855     10.87354         0.005593     -0.004894      0.004986
     22.71614     14.76025     10.87353         0.004427      0.004511      0.003682
     22.84538     12.30013     10.87372        -0.010905     -0.004081      0.005707
     22.97396      9.84036     10.87389        -0.005885     -0.018601      0.011211
     23.10296      7.37997     10.87429        -0.011030     -0.001342      0.018112
     23.23209      4.91996     10.87475        -0.018281     -0.016145      0.026253
     23.36129      2.45954     10.87511        -0.000375      0.005503      0.033288
    total drift:                                0.047398      0.003680      0.001132

  FREE ENERGIE OF THE ION-ELECTRON SYSTEM (eV)
  free  energy   TOTEN  =     -6779.09165825 eV

  energy  without entropy=    -6779.09165825  energy(sigma->0) =    -6779.09165825

 d Force =-0.1510016E-02[-0.237E-02,-0.646E-03]  d Energy =-0.3260151E-02 0.175E-02
 d Force =-0.3903905E+02[-0.391E+02,-0.390E+02]  d Ewald  =-0.6151977E+03 0.576E+03

 reached required accuracy - stopping structural energy minimisation
 writing wavefunctions

 total charge

# of ion       s       p       d       tot
    1        0.867   1.794   0.000   2.661
    2        0.867   1.794   0.000   2.661
    3        0.867   1.794   0.000   2.661
    4        0.867   1.794   0.000   2.661
    5        0.867   1.795   0.000   2.662
    6        0.867   1.795   0.000   2.662
    7        0.867   1.794   0.000   2.662
    8        0.867   1.795   0.000   2.662
    9        0.867   1.794   0.000   2.661
   10        0.867   1.794   0.000   2.661
   11        0.867   1.794   0.000   2.661
   12        0.867   1.794   0.000   2.661
   13        0.867   1.794   0.000   2.661
   14        0.867   1.793   0.000   2.661
   15        0.867   1.795   0.000   2.662
   16        0.867   1.793   0.000   2.661
   17        0.867   1.795   0.000   2.661
   18        0.867   1.793   0.000   2.661
   19        0.867   1.795   0.000   2.662
   20        0.867   1.793   0.000   2.660
   21        0.867   1.794   0.000   2.661
   22        0.867   1.794   0.000   2.661
   23        0.867   1.794   0.000   2.661
   24        0.867   1.794   0.000   2.661
   25        0.867   1.794   0.000   2.661
   26        0.867   1.794   0.000   2.661
   27        0.867   1.793   0.000   2.661
   28        0.867   1.795   0.000   2.662
   29        0.867   1.793   0.000   2.661
   30        0.867   1.795   0.000   2.661
   31        0.867   1.793   0.000   2.661
   32        0.867   1.795   0.000   2.661
   33        0.867   1.794   0.000   2.661
   34        0.867   1.795   0.000   2.662
   35        0.867   1.794   0.000   2.661
   36        0.867   1.794   0.000   2.661
   37        0.867   1.794   0.000   2.661
   38        0.867   1.794   0.000   2.661
   39        0.867   1.794   0.000   2.662
   40        0.867   1.795   0.000   2.662
   41        0.867   1.794   0.000   2.661
   42        0.867   1.794   0.000   2.661
   43        0.867   1.795   0.000   2.662
   44        0.867   1.794   0.000   2.661
   45        0.867   1.794   0.000   2.661
   46        0.867   1.794   0.000   2.661
   47        0.867   1.794   0.000   2.661
   48        0.867   1.794   0.000   2.661
   49        0.867   1.794   0.000   2.661
   50        0.867   1.795   0.000   2.662
   51        0.867   1.793   0.000   2.661
   52        0.867   1.795   0.000   2.662
   53        0.867   1.793   0.000   2.661
   54        0.867   1.795   0.000   2.662
   55        0.867   1.793   0.000   2.661
   56        0.867   1.794   0.000   2.661
   57        0.867   1.794   0.000   2.661
   58        0.867   1.794   0.000   2.661
   59        0.867   1.794   0.000   2.661
   60        0.867   1.794   0.000   2.661
[...]
  714        0.867   1.793   0.000   2.660
  715        0.867   1.795   0.000   2.661
  716        0.867   1.793   0.000   2.660
  717        0.867   1.794   0.000   2.661
  718        0.867   1.794   0.000   2.661
  719        0.867   1.794   0.000   2.661
  720        0.867   1.794   0.000   2.661
  721        0.867   1.794   0.000   2.661
  722        0.867   1.794   0.000   2.661
  723        0.867   1.793   0.000   2.660
  724        0.867   1.793   0.000   2.661
  725        0.867   1.794   0.000   2.661
  726        0.867   1.794   0.000   2.661
  727        0.867   1.794   0.000   2.661
  728        0.867   1.794   0.000   2.661
tot        631.2591306.062   0.0001937.321